C4                                      
    1.000000000000000     
    17.2710380553999983    0.0000000000000000    0.0000000000000000
    -8.6355190276999991   14.9571577057000002    0.0000000000000000
     0.0000000000000000    0.0000000000000000   15.0000000000000000
   C    H 
    88     8
Direct
  0.0000564390377553 -0.0000521830959136  0.2499999888211214
 -0.0003613939556893  0.1426397814961469  0.2499999899295281
 -0.0005937048050277  0.2853892785775267  0.2499999847774407
 -0.0004394628056573  0.4283801146866870  0.2499999860027824
 -0.0000304348573123  0.5713958609656449  0.2499999856626185
  0.0008731952348163  0.7146196576946351  0.2499999782890253
  0.0008919795697620  0.8575996621629447  0.2499999790060293
  0.1431855747779961  0.0002503417944004  0.2499999956873150
  0.1427120084445870  0.1429606842442437  0.2499999862931547
  0.1418744323170905  0.2851169808593848  0.2499999757877688
  0.1418822227035012  0.4281524728956321  0.2499999945927407
  0.1426864156623332  0.5711581426738488  0.2499999983915976
  0.1430911104808791  0.7142310337946417  0.2499999982793403
  0.1432670919834014  0.8572888379203032  0.2499999958499538
  0.2856499401446764 -0.0002590319137634  0.2500000074835815
  0.2855309413416131  0.1425031927397654  0.2499999986220955
  0.2856591180026727  0.2868693739428335  0.2499999683644109
  0.2837781204785772  0.4275938199355592  0.2500000245266147
  0.2857030857075550  0.5702594089886629  0.2500000423774865
  0.2854780620026290  0.7144566943777914  0.2499999832546737
  0.2856006470862677  0.8572611621341876  0.2499999907094612
  0.4286436910318522 -0.0000538714482568  0.2499999969056558
  0.4283952242759813  0.1423324216540286  0.2500000117294244
  0.4266622957483323  0.2818627330058117  0.2500000025625874
  0.4266250880205652  0.7161617999265802  0.2499999761860582
  0.4283337720086685  0.8573037274694697  0.2499999765357090
  0.5713674523558749  0.0001290609723743  0.2499999833024097
  0.5713750540607612  0.1424794419952087  0.2500000140508932
  0.5721686042470696  0.2856542885784853  0.2500000136802898
  0.5721937612200643  0.8576579673382873  0.2499999727999231
  0.7143093826785453 -0.0000227053804633  0.2499999811733517
  0.7143313975415438  0.1428128540328969  0.2499999980152574
  0.7142515510218629  0.2855482209921867  0.2500000089129626
  0.7137251827071472  0.4276100413964827  0.2499999950586448
  0.7176236424352179  0.5735134800462715  0.2499999830454613
  0.7177349722498708  0.7155657383034152  0.2499999859472745
  0.7138083341466982  0.8574095794379172  0.2499999824784409
  0.8571857545831242  0.0000552798438663  0.2499999873794720
  0.8568861132714716  0.1427125619495741  0.2499999873801286
  0.8568025956851385  0.2854451505302413  0.2499999933620499
  0.8570637966724443  0.4283937582654896  0.2499999817125782
  0.8575661431474025  0.5718069559212731  0.2499999631805575
  0.8589966724009268  0.7152061942433612  0.2499999642236325
  0.8576243095909770  0.8571280587525734  0.2499999827820301
  0.0475744285057230  0.0952608852138117  0.2499999895148475
  0.0466609440993296  0.2375175465792529  0.2499999861765925
  0.0466466533238130  0.3805487161660130  0.2499999876871420
  0.0475194002292299  0.5237000857593325  0.2499999924084577
  0.0479148782203218  0.6667307393112198  0.2499999901459717
  0.0481897546384900  0.8097453340736184  0.2499999850645269
  0.0479893957646650  0.9525265104185516  0.2499999874603952
  0.1903463581629497  0.0950586842794491  0.2499999934008003
  0.1898709770375592  0.2380214708737005  0.2499999769495838
  0.1884565047709176  0.3799109312446283  0.2499999759340367
  0.1898788880652527  0.5232843297036669  0.2499999944280476
  0.1903151016519483  0.6666654800973714  0.2500000003084444
  0.1906683388239256  0.8096221456488225  0.2499999949890061
  0.1907130504295346  0.9523649976608503  0.2500000017548923
  0.3332856585282222  0.0951236807712163  0.2500000077512698
  0.3337939626597906  0.2377393552927562  0.2499999901574724
  0.3297958628647954  0.3796118344352263  0.2499999625989545
  0.3298371855434693  0.5215916482608760  0.2500009811249391
  0.3337750529446230  0.6675298671722506  0.2499999788732169
  0.3332443909728491  0.8095692041455456  0.2499999816686021
  0.3332016468034008  0.9522535465969347  0.2499999988341252
  0.4762114603113358  0.0948742023545750  0.2500000112207625
  0.4754697749848135  0.2373763676739360  0.2500000133119778
  0.4754625012742477  0.8093823552333164  0.2499999738879818
  0.4761944739117233  0.9525547491437308  0.2499999815537766
  0.6189010119606150  0.0950674995308008  0.2499999999879353
  0.6191886576515238  0.2376700999589791  0.2500000154543787
  0.6209284660434244  0.3788699267577019  0.2500000045422823
  0.6209807287928319  0.8132211300129333  0.2499999764016701
  0.6191938699098133  0.9526863480957677  0.2499999777854872
  0.7619097905247415  0.0953549852297000  0.2499999866129150
  0.7618375374814662  0.2378516700847612  0.2500000034278284
  0.7619677336449642  0.3806627461313424  0.2499999972760693
  0.7617236817764005  0.5248075588778054  0.2499999768539376
  0.7636484883704266  0.6675131524817324  0.2499999765716432
  0.7618728865270362  0.8082999486049640  0.2499999851125523
  0.7620311940408886  0.9525909996310258  0.2499999822495298
  0.9044738417098085  0.0948713707551083  0.2499999888149745
  0.9043022741836018  0.2378298032941666  0.2499999881710981
  0.9043531678917553  0.3808627231737818  0.2499999853889023
  0.9048014780603419  0.5239381128781861  0.2499999721744296
  0.9055999358367621  0.6669755149999936  0.2499999615057945
  0.9056576611377949  0.8100340949376917  0.2499999725083082
  0.9048631655047307  0.9522068085524420  0.2499999877994604
  0.4628462846057180  0.3543638526452767  0.2499999951950677
  0.4025474190470294  0.4186344071991817  0.2499999780966358
  0.4025846563723457  0.5552710750769388  0.2500000059876130
  0.6449832583943031  0.6765627971471440  0.2499999912194483
  0.6448721952625445  0.5398134877442294  0.2499999954682756
  0.5847588723673934  0.4152011540735546  0.2499999939246643
  0.5848216360144556  0.7407226836321565  0.2499999835548284
  0.4627358543866786  0.6797706416083832  0.2499999855949141
 
  0.00000000E+00  0.00000000E+00  0.00000000E+00
  0.00000000E+00  0.00000000E+00  0.00000000E+00
  0.00000000E+00  0.00000000E+00  0.00000000E+00
  0.00000000E+00  0.00000000E+00  0.00000000E+00
  0.00000000E+00  0.00000000E+00  0.00000000E+00
  0.00000000E+00  0.00000000E+00  0.00000000E+00
  0.00000000E+00  0.00000000E+00  0.00000000E+00
  0.00000000E+00  0.00000000E+00  0.00000000E+00
  0.00000000E+00  0.00000000E+00  0.00000000E+00
  0.00000000E+00  0.00000000E+00  0.00000000E+00
  0.00000000E+00  0.00000000E+00  0.00000000E+00
  0.00000000E+00  0.00000000E+00  0.00000000E+00
  0.00000000E+00  0.00000000E+00  0.00000000E+00
  0.00000000E+00  0.00000000E+00  0.00000000E+00
  0.00000000E+00  0.00000000E+00  0.00000000E+00
  0.00000000E+00  0.00000000E+00  0.00000000E+00
  0.00000000E+00  0.00000000E+00  0.00000000E+00
  0.00000000E+00  0.00000000E+00  0.00000000E+00
  0.00000000E+00  0.00000000E+00  0.00000000E+00
  0.00000000E+00  0.00000000E+00  0.00000000E+00
  0.00000000E+00  0.00000000E+00  0.00000000E+00
  0.00000000E+00  0.00000000E+00  0.00000000E+00
  0.00000000E+00  0.00000000E+00  0.00000000E+00
  0.00000000E+00  0.00000000E+00  0.00000000E+00
  0.00000000E+00  0.00000000E+00  0.00000000E+00
  0.00000000E+00  0.00000000E+00  0.00000000E+00
  0.00000000E+00  0.00000000E+00  0.00000000E+00
  0.00000000E+00  0.00000000E+00  0.00000000E+00
  0.00000000E+00  0.00000000E+00  0.00000000E+00
  0.00000000E+00  0.00000000E+00  0.00000000E+00
  0.00000000E+00  0.00000000E+00  0.00000000E+00
  0.00000000E+00  0.00000000E+00  0.00000000E+00
  0.00000000E+00  0.00000000E+00  0.00000000E+00
  0.00000000E+00  0.00000000E+00  0.00000000E+00
  0.00000000E+00  0.00000000E+00  0.00000000E+00
  0.00000000E+00  0.00000000E+00  0.00000000E+00
  0.00000000E+00  0.00000000E+00  0.00000000E+00
  0.00000000E+00  0.00000000E+00  0.00000000E+00
  0.00000000E+00  0.00000000E+00  0.00000000E+00
  0.00000000E+00  0.00000000E+00  0.00000000E+00
  0.00000000E+00  0.00000000E+00  0.00000000E+00
  0.00000000E+00  0.00000000E+00  0.00000000E+00
  0.00000000E+00  0.00000000E+00  0.00000000E+00
  0.00000000E+00  0.00000000E+00  0.00000000E+00
  0.00000000E+00  0.00000000E+00  0.00000000E+00
  0.00000000E+00  0.00000000E+00  0.00000000E+00
  0.00000000E+00  0.00000000E+00  0.00000000E+00
  0.00000000E+00  0.00000000E+00  0.00000000E+00
  0.00000000E+00  0.00000000E+00  0.00000000E+00
  0.00000000E+00  0.00000000E+00  0.00000000E+00
  0.00000000E+00  0.00000000E+00  0.00000000E+00
  0.00000000E+00  0.00000000E+00  0.00000000E+00
  0.00000000E+00  0.00000000E+00  0.00000000E+00
  0.00000000E+00  0.00000000E+00  0.00000000E+00
  0.00000000E+00  0.00000000E+00  0.00000000E+00
  0.00000000E+00  0.00000000E+00  0.00000000E+00
  0.00000000E+00  0.00000000E+00  0.00000000E+00
  0.00000000E+00  0.00000000E+00  0.00000000E+00
  0.00000000E+00  0.00000000E+00  0.00000000E+00
  0.00000000E+00  0.00000000E+00  0.00000000E+00
  0.00000000E+00  0.00000000E+00  0.00000000E+00
  0.00000000E+00  0.00000000E+00  0.00000000E+00
  0.00000000E+00  0.00000000E+00  0.00000000E+00
  0.00000000E+00  0.00000000E+00  0.00000000E+00
  0.00000000E+00  0.00000000E+00  0.00000000E+00
  0.00000000E+00  0.00000000E+00  0.00000000E+00
  0.00000000E+00  0.00000000E+00  0.00000000E+00
  0.00000000E+00  0.00000000E+00  0.00000000E+00
  0.00000000E+00  0.00000000E+00  0.00000000E+00
  0.00000000E+00  0.00000000E+00  0.00000000E+00
  0.00000000E+00  0.00000000E+00  0.00000000E+00
  0.00000000E+00  0.00000000E+00  0.00000000E+00
  0.00000000E+00  0.00000000E+00  0.00000000E+00
  0.00000000E+00  0.00000000E+00  0.00000000E+00
  0.00000000E+00  0.00000000E+00  0.00000000E+00
  0.00000000E+00  0.00000000E+00  0.00000000E+00
  0.00000000E+00  0.00000000E+00  0.00000000E+00
  0.00000000E+00  0.00000000E+00  0.00000000E+00
  0.00000000E+00  0.00000000E+00  0.00000000E+00
  0.00000000E+00  0.00000000E+00  0.00000000E+00
  0.00000000E+00  0.00000000E+00  0.00000000E+00
  0.00000000E+00  0.00000000E+00  0.00000000E+00
  0.00000000E+00  0.00000000E+00  0.00000000E+00
  0.00000000E+00  0.00000000E+00  0.00000000E+00
  0.00000000E+00  0.00000000E+00  0.00000000E+00
  0.00000000E+00  0.00000000E+00  0.00000000E+00
  0.00000000E+00  0.00000000E+00  0.00000000E+00
  0.00000000E+00  0.00000000E+00  0.00000000E+00
  0.00000000E+00  0.00000000E+00  0.00000000E+00
  0.00000000E+00  0.00000000E+00  0.00000000E+00
  0.00000000E+00  0.00000000E+00  0.00000000E+00
  0.00000000E+00  0.00000000E+00  0.00000000E+00
  0.00000000E+00  0.00000000E+00  0.00000000E+00
  0.00000000E+00  0.00000000E+00  0.00000000E+00
  0.00000000E+00  0.00000000E+00  0.00000000E+00
  0.00000000E+00  0.00000000E+00  0.00000000E+00
