C4                                      
    1.000000000000000     
    17.2710380553999983    0.0000000000000000    0.0000000000000000
    -8.6355190276999991   14.9571577057000002    0.0000000000000000
     0.0000000000000000    0.0000000000000000   15.0000000000000000
   C    H    N 
    84     4     4
Direct
  0.0002875749987219 -0.0000991572591923  0.2500002996849109
 -0.0012426890044304  0.1420452139804285  0.2500001920147339
 -0.0022672125354890  0.2845631530966043  0.2500001377139532
 -0.0012870627821961  0.4280748909862714  0.2500001408268659
  0.0002374166885107  0.5716505961827490  0.2499999412992243
  0.0024968485545959  0.7155230132507556  0.2500001254981349
  0.0023805783726231  0.8582121827960760  0.2500003625297209
  0.1441590420120571  0.0012069546695255  0.2499998920843768
  0.1426407492158471  0.1436288980045841  0.2499995181866213
  0.1402374760491686  0.2847679947114692  0.2500001284254694
  0.1402592283544334  0.4268049065071967  0.2500007668122671
  0.1426949469525499  0.5703884846573007  0.2499999891324728
  0.1441578576049947  0.7142138532180000  0.2500001013853813
  0.1448632897413222  0.8580484362811143  0.2499999534045028
  0.2867522874205387  0.0010869174598611  0.2500000398110837
  0.2859091698493439  0.1451262991459206  0.2500003295049025
  0.2848692949075852  0.2917586977979559  0.2499995379921147
  0.2831683073972152  0.4272548394710572  0.2499997788035845
  0.2848966691227477  0.5644655621328786  0.2500007465905026
  0.2859804044531238  0.7121270404247600  0.2500000770395932
  0.2867928903478766  0.8569701577507628  0.2500000537108569
  0.4292129467552238  0.0003195765478303  0.2500001475254564
  0.4288153616278185  0.1446002824986329  0.2500000672740752
  0.4265080424735582  0.2855142035094382  0.2500005652101352
  0.4265565493926843  0.7122369463049292  0.2500003980735774
  0.4288710691305567  0.8556145534145900  0.2500002877824926
  0.5712750899529166 -0.0007276113097732  0.2499987902501135
  0.5713433598220379  0.1436178865902995  0.2499986332525986
  0.5722769684198462  0.2888882355479614  0.2499999841381196
  0.5722992151253128  0.8549766434295920  0.2499999071020346
  0.7138386101786631 -0.0019785102162840  0.2500003831589305
  0.7136261319980487  0.1425953462652896  0.2499989754405990
  0.7138345605723320  0.2873934427328895  0.2499986176182796
  0.7139142017880832  0.4317457972382099  0.2500004134038458
  0.7140048610943486  0.8537327199044943  0.2500003318438305
  0.8567335411155710 -0.0011673202142456  0.2500001335556799
  0.8558269281306943  0.1418386737611487  0.2500003993799705
  0.8557418434807109  0.2854146397059266  0.2499988038022553
  0.8566606409791135  0.4293570299484745  0.2500000269079088
  0.8584763002566341  0.5737405689426216  0.2500005044166827
  0.8600951341310176  0.7157901480084654  0.2500007242435904
  0.8584640092248950  0.8562331710170418  0.2500005642595515
  0.0474008932222062  0.0952872100231394  0.2500003850508344
  0.0451368161355385  0.2368912970278091  0.2500007296555154
  0.0451377388673439  0.3795970696203500  0.2500003373447689
  0.0474161675029909  0.5234968421984486  0.2500001164236643
  0.0489417929925158  0.6670535064829087  0.2499996441513258
  0.0498776352216792  0.8105939335525393  0.2500002217781410
  0.0489252407679381  0.9531092122264073  0.2500001886688750
  0.1908055855371884  0.0963049567696143  0.2499993624849279
  0.1889826294353934  0.2389250679149555  0.2499982370805031
  0.1873876639024397  0.3793323378016684  0.2500007323452489
  0.1890673724749508  0.5214325981721062  0.2500004988500700
  0.1908838664107861  0.6658779808701604  0.2499996673882423
  0.1918884615948420  0.8097853303636909  0.2499996126871008
  0.1918705343941723  0.9533468334364901  0.2500001656340813
  0.3337214630325772  0.0970979738607536  0.2499997121879691
  0.3335583869006012  0.2413402015352019  0.2500001616615757
  0.3335938355873582  0.6635590909834403  0.2500004870082175
  0.3338051008831354  0.8079656257740703  0.2500002575689181
  0.3339553707207250  0.9526176385894486  0.2500004067554114
  0.4762671067710292  0.0960198928053416  0.2499997968224581
  0.4753515275001444  0.2402877449678678  0.2499998816504941
  0.4753599896458106  0.8063672367720303  0.2500002743897812
  0.4762377960048708  0.9516799827574129  0.2499997761286578
  0.6183050460363493  0.0949309490594274  0.2499980998852228
  0.6187357571358507  0.2396656723837635  0.2499990795416018
  0.6210122627936712  0.3830027493474815  0.2500004804596231
  0.6211080705280579  0.8096361948435057  0.2500004213710508
  0.6187337307007051  0.9506760881478745  0.2499992527982547
  0.7608972051580648  0.0941301907835461  0.2500001498505831
  0.7608246319640036  0.2382844448609591  0.2499981153244476
  0.7615298970849639  0.3831925252381985  0.2499997278490331
  0.7625655354589361  0.5307347211994782  0.2500005636867406
  0.7642580464338810  0.6678658836680231  0.2500006700934360
  0.7625821713924847  0.8033461039504801  0.2500006084049377
  0.7616119719292346  0.9499446224560376  0.2500001194479231
  0.9035384571718932  0.0939209512690151  0.2499999337924191
  0.9028101811658574  0.2371469677158318  0.2499993007868779
  0.9034697268233136  0.3810256447467099  0.2499996725412145
  0.9049242635869122  0.5248171083607950  0.2500003348009224
  0.9073164602718848  0.6683762770662022  0.2500005730672019
  0.9072043750136274  0.8103846727310450  0.2500005668357444
  0.9049806162943895  0.9515611173618301  0.2500003578604382
  0.4604284523521900  0.3582235987839816  0.2499995760790096
  0.5870301038980549  0.4217324297964322  0.2500002495058529
  0.5871287462711641  0.7369247457361101  0.2500003125515864
  0.4604573810860629  0.6734300354324992  0.2500002128376086
  0.7179369282380029  0.5761733989571558  0.2500005302961681
  0.7179583270930324  0.7132696474876155  0.2500005863305598
  0.3294983858191047  0.3818476543768530  0.2499983872192820
  0.3295044310777539  0.5189779668124618  0.2500006919744764
 
  0.00000000E+00  0.00000000E+00  0.00000000E+00
  0.00000000E+00  0.00000000E+00  0.00000000E+00
  0.00000000E+00  0.00000000E+00  0.00000000E+00
  0.00000000E+00  0.00000000E+00  0.00000000E+00
  0.00000000E+00  0.00000000E+00  0.00000000E+00
  0.00000000E+00  0.00000000E+00  0.00000000E+00
  0.00000000E+00  0.00000000E+00  0.00000000E+00
  0.00000000E+00  0.00000000E+00  0.00000000E+00
  0.00000000E+00  0.00000000E+00  0.00000000E+00
  0.00000000E+00  0.00000000E+00  0.00000000E+00
  0.00000000E+00  0.00000000E+00  0.00000000E+00
  0.00000000E+00  0.00000000E+00  0.00000000E+00
  0.00000000E+00  0.00000000E+00  0.00000000E+00
  0.00000000E+00  0.00000000E+00  0.00000000E+00
  0.00000000E+00  0.00000000E+00  0.00000000E+00
  0.00000000E+00  0.00000000E+00  0.00000000E+00
  0.00000000E+00  0.00000000E+00  0.00000000E+00
  0.00000000E+00  0.00000000E+00  0.00000000E+00
  0.00000000E+00  0.00000000E+00  0.00000000E+00
  0.00000000E+00  0.00000000E+00  0.00000000E+00
  0.00000000E+00  0.00000000E+00  0.00000000E+00
  0.00000000E+00  0.00000000E+00  0.00000000E+00
  0.00000000E+00  0.00000000E+00  0.00000000E+00
  0.00000000E+00  0.00000000E+00  0.00000000E+00
  0.00000000E+00  0.00000000E+00  0.00000000E+00
  0.00000000E+00  0.00000000E+00  0.00000000E+00
  0.00000000E+00  0.00000000E+00  0.00000000E+00
  0.00000000E+00  0.00000000E+00  0.00000000E+00
  0.00000000E+00  0.00000000E+00  0.00000000E+00
  0.00000000E+00  0.00000000E+00  0.00000000E+00
  0.00000000E+00  0.00000000E+00  0.00000000E+00
  0.00000000E+00  0.00000000E+00  0.00000000E+00
  0.00000000E+00  0.00000000E+00  0.00000000E+00
  0.00000000E+00  0.00000000E+00  0.00000000E+00
  0.00000000E+00  0.00000000E+00  0.00000000E+00
  0.00000000E+00  0.00000000E+00  0.00000000E+00
  0.00000000E+00  0.00000000E+00  0.00000000E+00
  0.00000000E+00  0.00000000E+00  0.00000000E+00
  0.00000000E+00  0.00000000E+00  0.00000000E+00
  0.00000000E+00  0.00000000E+00  0.00000000E+00
  0.00000000E+00  0.00000000E+00  0.00000000E+00
  0.00000000E+00  0.00000000E+00  0.00000000E+00
  0.00000000E+00  0.00000000E+00  0.00000000E+00
  0.00000000E+00  0.00000000E+00  0.00000000E+00
  0.00000000E+00  0.00000000E+00  0.00000000E+00
  0.00000000E+00  0.00000000E+00  0.00000000E+00
  0.00000000E+00  0.00000000E+00  0.00000000E+00
  0.00000000E+00  0.00000000E+00  0.00000000E+00
  0.00000000E+00  0.00000000E+00  0.00000000E+00
  0.00000000E+00  0.00000000E+00  0.00000000E+00
  0.00000000E+00  0.00000000E+00  0.00000000E+00
  0.00000000E+00  0.00000000E+00  0.00000000E+00
  0.00000000E+00  0.00000000E+00  0.00000000E+00
  0.00000000E+00  0.00000000E+00  0.00000000E+00
  0.00000000E+00  0.00000000E+00  0.00000000E+00
  0.00000000E+00  0.00000000E+00  0.00000000E+00
  0.00000000E+00  0.00000000E+00  0.00000000E+00
  0.00000000E+00  0.00000000E+00  0.00000000E+00
  0.00000000E+00  0.00000000E+00  0.00000000E+00
  0.00000000E+00  0.00000000E+00  0.00000000E+00
  0.00000000E+00  0.00000000E+00  0.00000000E+00
  0.00000000E+00  0.00000000E+00  0.00000000E+00
  0.00000000E+00  0.00000000E+00  0.00000000E+00
  0.00000000E+00  0.00000000E+00  0.00000000E+00
  0.00000000E+00  0.00000000E+00  0.00000000E+00
  0.00000000E+00  0.00000000E+00  0.00000000E+00
  0.00000000E+00  0.00000000E+00  0.00000000E+00
  0.00000000E+00  0.00000000E+00  0.00000000E+00
  0.00000000E+00  0.00000000E+00  0.00000000E+00
  0.00000000E+00  0.00000000E+00  0.00000000E+00
  0.00000000E+00  0.00000000E+00  0.00000000E+00
  0.00000000E+00  0.00000000E+00  0.00000000E+00
  0.00000000E+00  0.00000000E+00  0.00000000E+00
  0.00000000E+00  0.00000000E+00  0.00000000E+00
  0.00000000E+00  0.00000000E+00  0.00000000E+00
  0.00000000E+00  0.00000000E+00  0.00000000E+00
  0.00000000E+00  0.00000000E+00  0.00000000E+00
  0.00000000E+00  0.00000000E+00  0.00000000E+00
  0.00000000E+00  0.00000000E+00  0.00000000E+00
  0.00000000E+00  0.00000000E+00  0.00000000E+00
  0.00000000E+00  0.00000000E+00  0.00000000E+00
  0.00000000E+00  0.00000000E+00  0.00000000E+00
  0.00000000E+00  0.00000000E+00  0.00000000E+00
  0.00000000E+00  0.00000000E+00  0.00000000E+00
  0.00000000E+00  0.00000000E+00  0.00000000E+00
  0.00000000E+00  0.00000000E+00  0.00000000E+00
  0.00000000E+00  0.00000000E+00  0.00000000E+00
  0.00000000E+00  0.00000000E+00  0.00000000E+00
  0.00000000E+00  0.00000000E+00  0.00000000E+00
  0.00000000E+00  0.00000000E+00  0.00000000E+00
  0.00000000E+00  0.00000000E+00  0.00000000E+00
  0.00000000E+00  0.00000000E+00  0.00000000E+00
