C4                                      
    1.000000000000000     
    17.2710380553999983    0.0000000000000000    0.0000000000000000
    -8.6355190276999991   14.9571577057000002    0.0000000000000000
     0.0000000000000000    0.0000000000000000   15.0000000000000000
   C    H    F 
    88     7     1
Direct
  0.0004570926018014  0.0000645027923493  0.2499988442740426
 -0.0004241351568281  0.1425413228129967  0.2499990193719023
 -0.0009949765588968  0.2851952785156218  0.2500006062033715
 -0.0007818089555464  0.4282847450813357  0.2499990280647234
 -0.0001288765071506  0.5713946879176020  0.2499995100856000
  0.0010081296956180  0.7146690489667390  0.2499987699141894
  0.0012522166057470  0.8576913684489202  0.2500006874494556
  0.1433737214826489  0.0001344546385505  0.2499989108384492
  0.1425876105075742  0.1426338997615746  0.2499988652430770
  0.1409234124954377  0.2841388141018844  0.2499990193292379
  0.1410877561893846  0.4275780938164648  0.2499986244800362
  0.1424290692938314  0.5708075043365837  0.2499992581146718
  0.1431443087618089  0.7141257383263900  0.2499997407038025
  0.1434827131258056  0.8571903811621626  0.2499989667394601
  0.2857676963022495 -0.0004128394834665  0.2499989567741853
  0.2854674209740602  0.1422562740725288  0.2500002646739384
  0.2851098292790074  0.2861314267891240  0.2499992539990865
  0.2814391344867337  0.4254155883281915  0.2499978801794521
  0.2852782331251524  0.5691396063751037  0.2500006372478698
  0.2853177952879652  0.7141348283308505  0.2499964534013126
  0.2857946351938047  0.8570742661472184  0.2499997996014185
  0.4287175205337745 -0.0000832539139902  0.2499984233932536
  0.4283950217314275  0.1423322391020852  0.2499992844500365
  0.4264239488548916  0.2817896085504829  0.2499997592051362
  0.4253483495683844  0.7172139474485785  0.2500094439559773
  0.4285774579428865  0.8573302008320361  0.2499961799241236
  0.5716067822838002  0.0003309555891973  0.2499986317544514
  0.5713930203724569  0.1426626328647232  0.2499987493285740
  0.5720336459225547  0.2858373460483506  0.2499995133548396
  0.5732632821402261  0.8579980056259432  0.2500005419779315
  0.7148117525671461  0.0006383044573190  0.2499997177549238
  0.7143287261458007  0.1431062153085640  0.2499988352024662
  0.7141427183227751  0.2858039353938911  0.2499989477253629
  0.7135509474278069  0.4278949187906456  0.2499993962141648
  0.7177427645869218  0.5740309189498871  0.2499996266906807
  0.7182370700426359  0.7163895179670500  0.2499995638011155
  0.7159513359432276  0.8594528895151130  0.2499983877998104
  0.8580370006455411  0.0008151317431995  0.2499989584437882
  0.8569214788848801  0.1429748655038080  0.2499990696102479
  0.8565950555755973  0.2856149525702067  0.2499990716180625
  0.8569250404780628  0.4285988326695270  0.2499994050709016
  0.8575155251701944  0.5720244571104072  0.2499988014951922
  0.8592799433363004  0.7155434235412309  0.2499993729479424
  0.8583931871714001  0.8576548103720490  0.2499993304875820
  0.0476158245853651  0.0952028616116379  0.2499987885122279
  0.0460731202370491  0.2370846685850946  0.2499993288988396
  0.0460737930538747  0.3802713376092381  0.2499989453174017
  0.0472593996472244  0.5235443949566657  0.2499993038676439
  0.0479607390753125  0.6667103993187412  0.2499994512018593
  0.0484371097698584  0.8097533966209332  0.2499988517873503
  0.0482834353241963  0.9525444977941478  0.2500001245436126
  0.1903651070123146  0.0948696151235476  0.2499990815758905
  0.1893848964449215  0.2374659617929813  0.2499989379987907
  0.1868365226088788  0.3785384740286897  0.2499985114440210
  0.1893785521297724  0.5227137694316657  0.2499992173141374
  0.1901585508552317  0.6663516606034486  0.2500001356555550
  0.1908400003471374  0.8094852834775066  0.2499996921808385
  0.1908781434830119  0.9522434051548905  0.2499989742590609
  0.3333114301653058  0.0949706716723247  0.2499992335980321
  0.3335605366619914  0.2374093196052323  0.2499996269696845
  0.3285887921645014  0.3786324984309761  0.2499989323108512
  0.3279270718366391  0.5187857863784631  0.2499970450960386
  0.3326174556596398  0.6661418983521431  0.2499996226869133
  0.3333804043397635  0.8093642187431946  0.2499999251186033
  0.3333356136001032  0.9521227472173122  0.2499988814345542
  0.4762483434610481  0.0949109031039749  0.2499989478264024
  0.4753423333606774  0.2374158233760899  0.2499996411227579
  0.4767085425921688  0.8103055645711331  0.2500001143848601
  0.4764036991879740  0.9526167373150273  0.2499970951423528
  0.6189884608269565  0.0953168758407481  0.2499988002233556
  0.6190964951064407  0.2378869499690819  0.2499989711575920
  0.6207309424927574  0.3790875447151982  0.2499996384748748
  0.6236674929738498  0.8149849671738417  0.2499976657922789
  0.6197162844840247  0.9531585711319859  0.2499995924412461
  0.7620083391236308  0.0957610025444398  0.2499988211107525
  0.7617194888006236  0.2380920819701183  0.2499988249949308
  0.7618273572385188  0.3809392372864829  0.2499994050455508
  0.7616590225193345  0.5251513159222145  0.2499993191415797
  0.7639442151423491  0.6680820608006950  0.2499994693164084
  0.7628753267297196  0.8092419951764004  0.2499997238126350
  0.7633207572326099  0.9539961348696296  0.2499991636606393
  0.9047333097284399  0.0952780305662656  0.2499989464549754
  0.9040655880637417  0.2379363478863476  0.2499993656444537
  0.9040979031141668  0.3809635440259789  0.2499992164822521
  0.9047019491898679  0.5241120283908495  0.2499990238938277
  0.9057175076344118  0.6671652300509613  0.2499985973046693
  0.9061315340452935  0.8103440073886984  0.2499998522164757
  0.9054597719104349  0.9526510497254490  0.2499988333360544
  0.4624181252516482  0.3542983556630938  0.2499999143829242
  0.4012787384841164  0.4185339230922754  0.2499996379886339
  0.3995578808227190  0.5491875495942834  0.2499964108326047
  0.6454966901718376  0.6775530773454231  0.2500000209474477
  0.6450018717715489  0.5404744150711435  0.2499999536265387
  0.5845271996035591  0.4153940939757029  0.2499999163295055
  0.5904864411722196  0.7435346339524427  0.2499966073445204
  0.4705909065508536  0.6712835196575097  0.2500737888991445
 
  0.00000000E+00  0.00000000E+00  0.00000000E+00
  0.00000000E+00  0.00000000E+00  0.00000000E+00
  0.00000000E+00  0.00000000E+00  0.00000000E+00
  0.00000000E+00  0.00000000E+00  0.00000000E+00
  0.00000000E+00  0.00000000E+00  0.00000000E+00
  0.00000000E+00  0.00000000E+00  0.00000000E+00
  0.00000000E+00  0.00000000E+00  0.00000000E+00
  0.00000000E+00  0.00000000E+00  0.00000000E+00
  0.00000000E+00  0.00000000E+00  0.00000000E+00
  0.00000000E+00  0.00000000E+00  0.00000000E+00
  0.00000000E+00  0.00000000E+00  0.00000000E+00
  0.00000000E+00  0.00000000E+00  0.00000000E+00
  0.00000000E+00  0.00000000E+00  0.00000000E+00
  0.00000000E+00  0.00000000E+00  0.00000000E+00
  0.00000000E+00  0.00000000E+00  0.00000000E+00
  0.00000000E+00  0.00000000E+00  0.00000000E+00
  0.00000000E+00  0.00000000E+00  0.00000000E+00
  0.00000000E+00  0.00000000E+00  0.00000000E+00
  0.00000000E+00  0.00000000E+00  0.00000000E+00
  0.00000000E+00  0.00000000E+00  0.00000000E+00
  0.00000000E+00  0.00000000E+00  0.00000000E+00
  0.00000000E+00  0.00000000E+00  0.00000000E+00
  0.00000000E+00  0.00000000E+00  0.00000000E+00
  0.00000000E+00  0.00000000E+00  0.00000000E+00
  0.00000000E+00  0.00000000E+00  0.00000000E+00
  0.00000000E+00  0.00000000E+00  0.00000000E+00
  0.00000000E+00  0.00000000E+00  0.00000000E+00
  0.00000000E+00  0.00000000E+00  0.00000000E+00
  0.00000000E+00  0.00000000E+00  0.00000000E+00
  0.00000000E+00  0.00000000E+00  0.00000000E+00
  0.00000000E+00  0.00000000E+00  0.00000000E+00
  0.00000000E+00  0.00000000E+00  0.00000000E+00
  0.00000000E+00  0.00000000E+00  0.00000000E+00
  0.00000000E+00  0.00000000E+00  0.00000000E+00
  0.00000000E+00  0.00000000E+00  0.00000000E+00
  0.00000000E+00  0.00000000E+00  0.00000000E+00
  0.00000000E+00  0.00000000E+00  0.00000000E+00
  0.00000000E+00  0.00000000E+00  0.00000000E+00
  0.00000000E+00  0.00000000E+00  0.00000000E+00
  0.00000000E+00  0.00000000E+00  0.00000000E+00
  0.00000000E+00  0.00000000E+00  0.00000000E+00
  0.00000000E+00  0.00000000E+00  0.00000000E+00
  0.00000000E+00  0.00000000E+00  0.00000000E+00
  0.00000000E+00  0.00000000E+00  0.00000000E+00
  0.00000000E+00  0.00000000E+00  0.00000000E+00
  0.00000000E+00  0.00000000E+00  0.00000000E+00
  0.00000000E+00  0.00000000E+00  0.00000000E+00
  0.00000000E+00  0.00000000E+00  0.00000000E+00
  0.00000000E+00  0.00000000E+00  0.00000000E+00
  0.00000000E+00  0.00000000E+00  0.00000000E+00
  0.00000000E+00  0.00000000E+00  0.00000000E+00
  0.00000000E+00  0.00000000E+00  0.00000000E+00
  0.00000000E+00  0.00000000E+00  0.00000000E+00
  0.00000000E+00  0.00000000E+00  0.00000000E+00
  0.00000000E+00  0.00000000E+00  0.00000000E+00
  0.00000000E+00  0.00000000E+00  0.00000000E+00
  0.00000000E+00  0.00000000E+00  0.00000000E+00
  0.00000000E+00  0.00000000E+00  0.00000000E+00
  0.00000000E+00  0.00000000E+00  0.00000000E+00
  0.00000000E+00  0.00000000E+00  0.00000000E+00
  0.00000000E+00  0.00000000E+00  0.00000000E+00
  0.00000000E+00  0.00000000E+00  0.00000000E+00
  0.00000000E+00  0.00000000E+00  0.00000000E+00
  0.00000000E+00  0.00000000E+00  0.00000000E+00
  0.00000000E+00  0.00000000E+00  0.00000000E+00
  0.00000000E+00  0.00000000E+00  0.00000000E+00
  0.00000000E+00  0.00000000E+00  0.00000000E+00
  0.00000000E+00  0.00000000E+00  0.00000000E+00
  0.00000000E+00  0.00000000E+00  0.00000000E+00
  0.00000000E+00  0.00000000E+00  0.00000000E+00
  0.00000000E+00  0.00000000E+00  0.00000000E+00
  0.00000000E+00  0.00000000E+00  0.00000000E+00
  0.00000000E+00  0.00000000E+00  0.00000000E+00
  0.00000000E+00  0.00000000E+00  0.00000000E+00
  0.00000000E+00  0.00000000E+00  0.00000000E+00
  0.00000000E+00  0.00000000E+00  0.00000000E+00
  0.00000000E+00  0.00000000E+00  0.00000000E+00
  0.00000000E+00  0.00000000E+00  0.00000000E+00
  0.00000000E+00  0.00000000E+00  0.00000000E+00
  0.00000000E+00  0.00000000E+00  0.00000000E+00
  0.00000000E+00  0.00000000E+00  0.00000000E+00
  0.00000000E+00  0.00000000E+00  0.00000000E+00
  0.00000000E+00  0.00000000E+00  0.00000000E+00
  0.00000000E+00  0.00000000E+00  0.00000000E+00
  0.00000000E+00  0.00000000E+00  0.00000000E+00
  0.00000000E+00  0.00000000E+00  0.00000000E+00
  0.00000000E+00  0.00000000E+00  0.00000000E+00
  0.00000000E+00  0.00000000E+00  0.00000000E+00
  0.00000000E+00  0.00000000E+00  0.00000000E+00
  0.00000000E+00  0.00000000E+00  0.00000000E+00
  0.00000000E+00  0.00000000E+00  0.00000000E+00
  0.00000000E+00  0.00000000E+00  0.00000000E+00
  0.00000000E+00  0.00000000E+00  0.00000000E+00
  0.00000000E+00  0.00000000E+00  0.00000000E+00
  0.00000000E+00  0.00000000E+00  0.00000000E+00
  0.00000000E+00  0.00000000E+00  0.00000000E+00
