C    F    N    H    O 
    1.000000000000000     
  17.2710380553999983   0.0000000000000000   0.0000000000000000
  -8.6355190276999991  14.9571577057000002   0.0000000000000000
   0.0000000000000000   0.0000000000000000  15.0000000000000000
C    F    N    H    O 
82  2  6  2  1  
Selective dynamics
Direct
  0.9987092310814200  0.0014923046359849  0.4972545994619897 T T T
  0.9989632088906792  0.1445044551532154  0.4979223611738927 T T T
  0.9998075251755120  0.2881429874335972  0.4986517004094202 T T T
  0.0002654305237273  0.4312542714523638  0.4983591784483208 T T T
  0.0005948589993800  0.5739826978163715  0.4975349775095805 T T T
  0.0009533534933679  0.7168367689103108  0.4970697525893621 T T T
  0.9995711293653819  0.8594762929524838  0.4971499794413375 T T T
  0.1430105872947529  0.0030941798299709  0.4975072748698581 T T T
  0.1426688093806524  0.1454227502490862  0.4975330613615639 T T T
  0.1420926504076684  0.2871304926220088  0.4977943464632774 T T T
  0.1437302062070471  0.4312882675997767  0.4978311756054089 T T T
  0.1446644899134289  0.5739739948749500  0.4972941273149334 T T T
  0.1440401660383676  0.7168494139640649  0.4971051873207469 T T T
  0.1431972341773363  0.8599992608509772  0.4974110490362593 T T T
  0.2860175776794773  0.0033178223996357  0.4970753632252085 T T T
  0.2866904503321343  0.1470534198211050  0.4967314932158063 T T T
  0.2876374047123617  0.2925642061486021  0.4953686189819219 T T T
  0.2849685481370441  0.4260635004170762  0.4947095460748289 T T T
  0.2902410841612703  0.5741660497165689  0.4955140489985291 T T T
  0.2874559510322805  0.7175073317294002  0.4962049483118056 T T T
  0.2862346949356973  0.8603901053888333  0.4967053557244644 T T T
  0.4289827873331767  0.0037343660604407  0.4963041468341285 T T T
  0.4290139280587837  0.1475635799348465  0.4961375915467760 T T T
  0.4292468082416905  0.8600737559752293  0.4958859490243718 T T T
  0.5712287370605126  0.0031639691316797  0.4962050121040125 T T T
  0.5712372354571239  0.1466618213401224  0.4962590879035773 T T T
  0.5735179859501218  0.2934774106000743  0.4953146212390171 T T T
  0.5731936160716680  0.8587784654167318  0.4956663356914474 T T T
  0.7134047400000814  0.0023038567088217  0.4965314512449964 T T T
  0.7140027952631601  0.1460236967220577  0.4971813174309359 T T T
  0.7137058428581121  0.2891650059236707  0.4967287228190356 T T T
  0.7095000637518145  0.4290727345238234  0.4947476574342102 T T T
  0.7083421873533986  0.8577355368126832  0.4951364138183735 T T T
  0.8555700321807366  0.0013276509948208  0.4966736871859311 T T T
  0.8564495169851316  0.1451666363635366  0.4977603786972858 T T T
  0.8567382175197070  0.2884462689980327  0.4981111317433658 T T T
  0.8566980299033005  0.4313470437261614  0.4972058848340646 T T T
  0.8567145797278310  0.5737630045888927  0.4960454616192094 T T T
  0.8579488184652482  0.7162297752750855  0.4953563679423894 T T T
  0.8543219073242904  0.8573856273391143  0.4957986038141521 T T T
  0.0469491502019875  0.0971399522890348  0.4976536537149610 T T T
  0.0465825298241384  0.2396503312401330  0.4983446399982612 T T T
  0.0478945769649663  0.3836694886230078  0.4985486424211101 T T T
  0.0487994745780616  0.5265482080063296  0.4978834965851019 T T T
  0.0485728959844825  0.6693230346098488  0.4973133878737706 T T T
  0.0477033811266852  0.8120968346712761  0.4972973128303576 T T T
  0.0472528018469068  0.9546855414581384  0.4973979199150695 T T T
  0.1908557284371616  0.0983642717464054  0.4972997468494115 T T T
  0.1908170054458181  0.2407546947164649  0.4972523809715492 T T T
  0.1895587800045148  0.3819975944354964  0.4972031459904626 T T T
  0.1931811556866158  0.5267848510836869  0.4970520721550947 T T T
  0.1919926948839993  0.6694978108864947  0.4968370997136352 T T T
  0.1911266033545186  0.8124412126057927  0.4971333063074704 T T T
  0.1908252673685698  0.9553975488309742  0.4974131950766448 T T T
  0.3338465400962325  0.0991670445303868  0.4967230429856069 T T T
  0.3380383114662780  0.2432879934841020  0.4956607942740882 T T T
  0.3391895887294356  0.6730694594745049  0.4956563812555582 T T T
  0.3341836219260611  0.8126210586318559  0.4961750239160753 T T T
  0.3335507290573063  0.9556989798188564  0.4966733147065391 T T T
  0.4763093362549045  0.0991879509177548  0.4962070737470603 T T T
  0.4740396944240179  0.2437232955639101  0.4955283710287134 T T T
  0.4743425840404570  0.8093083020176260  0.4956715147291771 T T T
  0.4763602764155012  0.9557198701753634  0.4960269754212818 T T T
  0.6185907692511310  0.0985659524844671  0.4965814761782068 T T T
  0.6185537735648642  0.2423601709397326  0.4961343644888043 T T T
  0.6183236896775878  0.9546356891145212  0.4960626725686072 T T T
  0.7613289111638304  0.0980320805860187  0.4972099335449415 T T T
  0.7615715025658617  0.2411801967794972  0.4974763383817752 T T T
  0.7608563879045539  0.3842146490800955  0.4962849793465283 T T T
  0.7598790683015590  0.5287505847327472  0.4939349175310966 T T T
  0.7625492419254108  0.6649168957311179  0.4926899594654375 T T T
  0.7572633587003018  0.8077373500147594  0.4942766449466490 T T T
  0.7600977943264788  0.9538953560191260  0.4961516836345254 T T T
  0.9034976800877098  0.0966237080280660  0.4975507947982943 T T T
  0.9043307538708418  0.2406394609321791  0.4983747329681738 T T T
  0.9045201345404844  0.3839244805261543  0.4981009295433105 T T T
  0.9048682422674138  0.5265697704294788  0.4971252066150276 T T T
  0.9054295162009331  0.6688547595930440  0.4962224184029836 T T T
  0.9037632301738596  0.8113236054129274  0.4961683973985109 T T T
  0.9028434215783910  0.9530773825529888  0.4966577655775004 T T T
  0.7153716158744142  0.7137540355313449  0.4916717481186112 T T T
  0.3321018806055671  0.5220492618337869  0.4936156504777421 T T T
  0.6262257132063468  0.6641093335198393  0.4880847788753209 T T T
  0.4212756950803295  0.5616058697344214  0.4904181587206159 T T T
  0.4281083649307824  0.2881081881634986  0.4950640632938402 T T T
  0.4290890532222326  0.7191547555354365  0.4954834847384716 T T T
  0.7159387835354678  0.5740909412932578  0.4910326441153971 T T T
  0.3315943920475068  0.3818637094877671  0.4930309994258748 T T T
  0.6194195779655997  0.3837990646819472  0.4945315222138651 T T T
  0.6184497208964278  0.8138848586105912  0.4951663972084013 T T T
  0.5226565446188847  0.5197489739812332  0.5709661554043516 T T T
  0.5267153593099281  0.4342752959473516  0.5579153440261186 T T T
  0.5257472440417751  0.4733157965029557  0.6046639079999991 T T F
