C4                                      
    1.000000000000000     
    17.2710380553999983    0.0000000000000000    0.0000000000000000
    -8.6355190276999991   14.9571577057000002    0.0000000000000000
     0.0000000000000000    0.0000000000000000   15.0000000000000000
   C    F    N 
    84     4     4
Direct
  0.0005923898406511  0.0005517654522723  0.2499996579192639
 -0.0016630492605785  0.1420121277879260  0.2500005794260424
 -0.0025534783433877  0.2846278649956113  0.2500011207983637
 -0.0011635896487448  0.4282586329829280  0.2499996680284411
 -0.0003064083328040  0.5718608809538763  0.2499999762467396
  0.0022382768656578  0.7153625596606851  0.2500004023587574
  0.0032080975471309  0.8592953780522709  0.2500001790284863
  0.1438010657574476  0.0003560986574726  0.2499998342774392
  0.1417251805069214  0.1427087447663671  0.2500005992738115
  0.1385819002990750  0.2837382427332854  0.2500049046951788
  0.1391906060168497  0.4264755032488021  0.2500040315131208
  0.1424330472649725  0.5702121700024297  0.2500008133111152
  0.1444623095954754  0.7138187294429847  0.2500000461562140
  0.1448954537641294  0.8573292898169285  0.2500002531807526
  0.2865269242029614 -0.0003118151688048  0.2500001508594584
  0.2838220596986639  0.1422615306022893  0.2500004625901697
  0.2821519491070086  0.2898116797474099  0.2500018004129733
  0.2797545134402968  0.4250898091490309  0.2500037502486714
  0.2844066941065224  0.5632835069501080  0.2500020965074952
  0.2869516007588818  0.7113255137209875  0.2499997913377384
  0.2872606727122716  0.8558494704560312  0.2500001827222039
  0.4290499771204910 -0.0009011037252583  0.2499999047827036
  0.4280648873791287  0.1433384565246239  0.2500000109641971
  0.4212968739656752  0.2806380763136040  0.2499970207195080
  0.4279278966794759  0.7121403084278992  0.2500021992782064
  0.4301368815846074  0.8547261291983766  0.2499999997022353
  0.5714590802106949 -0.0015068269946303  0.2499999645912225
  0.5710021325964618  0.1414141500312361  0.2500005745623775
  0.5719053889836686  0.2841769965769922  0.2500006093678177
  0.5760915060947762  0.8556939902058878  0.2500004801390194
  0.7144999645998108 -0.0004293558909760  0.2500002211729911
  0.7137143416418934  0.1421971574029261  0.2499999630875913
  0.7143402043167207  0.2855692184095825  0.2500009366814341
  0.7175129891998088  0.4294856714963906  0.2500023267546135
  0.7193397091913897  0.5825593164075086  0.2500003797554667
  0.7119684770316531  0.8566627632824554  0.2500001204211645
  0.8570143076577506 -0.0000398611094521  0.2499997606055324
  0.8560144543107256  0.1423345078627726  0.2499998506444249
  0.8560368425635934  0.2853612567130260  0.2499995208804568
  0.8579486157910524  0.4293389797378850  0.2500004839970338
  0.8566010206571899  0.5737837723183083  0.2499999882887331
  0.8626351766791482  0.7193730774533339  0.2500005995239816
  0.8592959680176699  0.8591008091786462  0.2500002041556450
  0.0469539900884843  0.0952934677033512  0.2499999297637560
  0.0441951549795042  0.2365087669354106  0.2500026829506224
  0.0446562293017379  0.3795413841644740  0.2500005597011123
  0.0469836078505544  0.5235586346809965  0.2500003504006591
  0.0490145474792133  0.6670948522368678  0.2500001584847907
  0.0498892344082988  0.8105648532223545  0.2500002386692406
  0.0491416240112937  0.9535507902465914  0.2499997643248327
  0.1894223721843729  0.0947869792052758  0.2499998147898486
  0.1870328478009411  0.2375578884842201  0.2500026829005067
  0.1849407846176353  0.3780422590515774  0.2500061096011150
  0.1884223833915535  0.5210479708803387  0.2500030672052088
  0.1914019725406227  0.6655196438937555  0.2500004399357990
  0.1922279748524624  0.8091562891283081  0.2500002479330689
  0.1916099542144820  0.9524397013336480  0.2500001486890712
  0.3329478149583939  0.0953625446086963  0.2500002156277912
  0.3287367787446691  0.2370495334297099  0.2499999243170650
  0.3339406376708665  0.6620179891319793  0.2500006453644771
  0.3347708505505022  0.8070870363285572  0.2499999751481586
  0.3339247435407083  0.9513351836254429  0.2500000894909646
  0.4758751374033906  0.0947176423635831  0.2500000485571775
  0.4750694305907888  0.2392843451135090  0.2499984493022359
  0.4784037311622849  0.8067792133125166  0.2500005915648497
  0.4765713363263439  0.9507542545873244  0.2499999349676001
  0.6184382777218995  0.0937923884328429  0.2499999154482052
  0.6190512271712264  0.2366053509268531  0.2500025548696419
  0.6260564514542628  0.3766153275334915  0.2499908970969694
  0.6198440679963603  0.9513142558001261  0.2500002753057877
  0.7613850682405129  0.0949232650882305  0.2500000266374239
  0.7612200802597970  0.2375183495348286  0.2499996697434302
  0.7637068395591431  0.3813451129926121  0.2500028861921211
  0.7595912775930742  0.5275392853213696  0.2499994519836004
  0.7688528152447239  0.6772431705978974  0.2499998615147177
  0.7632618016867219  0.8084152533146047  0.2500000637288927
  0.7619478823590947  0.9520211746827802  0.2500001341528452
  0.9035127184035499  0.0944901392159530  0.2499997324623871
  0.9028923274301135  0.2373284168994111  0.2500000136131636
  0.9041119613908669  0.3809829677684887  0.2499994728056341
  0.9041024201104676  0.5251145446855279  0.2499999318907126
  0.9070062894847390  0.6688352186650671  0.2500003949507320
  0.9085896565076632  0.8132669758351109  0.2500003675053858
  0.9057238743297019  0.9534528390683306  0.2499998778126778
  0.4524616461196605  0.3679561414020070  0.2499942073360775
  0.6328375440242042  0.5599817870713670  0.2500052244208432
  0.5870610065252367  0.4245025755045644  0.2499523636590795
  0.4722199563862250  0.6673991189026883  0.2500079984077616
  0.7207114567643903  0.7199237093910370  0.2500001772992840
  0.3251219238118839  0.3797511656893333  0.2500015713183358
  0.3272355479208651  0.5162992653304705  0.2500012861391294
  0.6225564022430679  0.8116640888196422  0.2500001530464150
 
  0.00000000E+00  0.00000000E+00  0.00000000E+00
  0.00000000E+00  0.00000000E+00  0.00000000E+00
  0.00000000E+00  0.00000000E+00  0.00000000E+00
  0.00000000E+00  0.00000000E+00  0.00000000E+00
  0.00000000E+00  0.00000000E+00  0.00000000E+00
  0.00000000E+00  0.00000000E+00  0.00000000E+00
  0.00000000E+00  0.00000000E+00  0.00000000E+00
  0.00000000E+00  0.00000000E+00  0.00000000E+00
  0.00000000E+00  0.00000000E+00  0.00000000E+00
  0.00000000E+00  0.00000000E+00  0.00000000E+00
  0.00000000E+00  0.00000000E+00  0.00000000E+00
  0.00000000E+00  0.00000000E+00  0.00000000E+00
  0.00000000E+00  0.00000000E+00  0.00000000E+00
  0.00000000E+00  0.00000000E+00  0.00000000E+00
  0.00000000E+00  0.00000000E+00  0.00000000E+00
  0.00000000E+00  0.00000000E+00  0.00000000E+00
  0.00000000E+00  0.00000000E+00  0.00000000E+00
  0.00000000E+00  0.00000000E+00  0.00000000E+00
  0.00000000E+00  0.00000000E+00  0.00000000E+00
  0.00000000E+00  0.00000000E+00  0.00000000E+00
  0.00000000E+00  0.00000000E+00  0.00000000E+00
  0.00000000E+00  0.00000000E+00  0.00000000E+00
  0.00000000E+00  0.00000000E+00  0.00000000E+00
  0.00000000E+00  0.00000000E+00  0.00000000E+00
  0.00000000E+00  0.00000000E+00  0.00000000E+00
  0.00000000E+00  0.00000000E+00  0.00000000E+00
  0.00000000E+00  0.00000000E+00  0.00000000E+00
  0.00000000E+00  0.00000000E+00  0.00000000E+00
  0.00000000E+00  0.00000000E+00  0.00000000E+00
  0.00000000E+00  0.00000000E+00  0.00000000E+00
  0.00000000E+00  0.00000000E+00  0.00000000E+00
  0.00000000E+00  0.00000000E+00  0.00000000E+00
  0.00000000E+00  0.00000000E+00  0.00000000E+00
  0.00000000E+00  0.00000000E+00  0.00000000E+00
  0.00000000E+00  0.00000000E+00  0.00000000E+00
  0.00000000E+00  0.00000000E+00  0.00000000E+00
  0.00000000E+00  0.00000000E+00  0.00000000E+00
  0.00000000E+00  0.00000000E+00  0.00000000E+00
  0.00000000E+00  0.00000000E+00  0.00000000E+00
  0.00000000E+00  0.00000000E+00  0.00000000E+00
  0.00000000E+00  0.00000000E+00  0.00000000E+00
  0.00000000E+00  0.00000000E+00  0.00000000E+00
  0.00000000E+00  0.00000000E+00  0.00000000E+00
  0.00000000E+00  0.00000000E+00  0.00000000E+00
  0.00000000E+00  0.00000000E+00  0.00000000E+00
  0.00000000E+00  0.00000000E+00  0.00000000E+00
  0.00000000E+00  0.00000000E+00  0.00000000E+00
  0.00000000E+00  0.00000000E+00  0.00000000E+00
  0.00000000E+00  0.00000000E+00  0.00000000E+00
  0.00000000E+00  0.00000000E+00  0.00000000E+00
  0.00000000E+00  0.00000000E+00  0.00000000E+00
  0.00000000E+00  0.00000000E+00  0.00000000E+00
  0.00000000E+00  0.00000000E+00  0.00000000E+00
  0.00000000E+00  0.00000000E+00  0.00000000E+00
  0.00000000E+00  0.00000000E+00  0.00000000E+00
  0.00000000E+00  0.00000000E+00  0.00000000E+00
  0.00000000E+00  0.00000000E+00  0.00000000E+00
  0.00000000E+00  0.00000000E+00  0.00000000E+00
  0.00000000E+00  0.00000000E+00  0.00000000E+00
  0.00000000E+00  0.00000000E+00  0.00000000E+00
  0.00000000E+00  0.00000000E+00  0.00000000E+00
  0.00000000E+00  0.00000000E+00  0.00000000E+00
  0.00000000E+00  0.00000000E+00  0.00000000E+00
  0.00000000E+00  0.00000000E+00  0.00000000E+00
  0.00000000E+00  0.00000000E+00  0.00000000E+00
  0.00000000E+00  0.00000000E+00  0.00000000E+00
  0.00000000E+00  0.00000000E+00  0.00000000E+00
  0.00000000E+00  0.00000000E+00  0.00000000E+00
  0.00000000E+00  0.00000000E+00  0.00000000E+00
  0.00000000E+00  0.00000000E+00  0.00000000E+00
  0.00000000E+00  0.00000000E+00  0.00000000E+00
  0.00000000E+00  0.00000000E+00  0.00000000E+00
  0.00000000E+00  0.00000000E+00  0.00000000E+00
  0.00000000E+00  0.00000000E+00  0.00000000E+00
  0.00000000E+00  0.00000000E+00  0.00000000E+00
  0.00000000E+00  0.00000000E+00  0.00000000E+00
  0.00000000E+00  0.00000000E+00  0.00000000E+00
  0.00000000E+00  0.00000000E+00  0.00000000E+00
  0.00000000E+00  0.00000000E+00  0.00000000E+00
  0.00000000E+00  0.00000000E+00  0.00000000E+00
  0.00000000E+00  0.00000000E+00  0.00000000E+00
  0.00000000E+00  0.00000000E+00  0.00000000E+00
  0.00000000E+00  0.00000000E+00  0.00000000E+00
  0.00000000E+00  0.00000000E+00  0.00000000E+00
  0.00000000E+00  0.00000000E+00  0.00000000E+00
  0.00000000E+00  0.00000000E+00  0.00000000E+00
  0.00000000E+00  0.00000000E+00  0.00000000E+00
  0.00000000E+00  0.00000000E+00  0.00000000E+00
  0.00000000E+00  0.00000000E+00  0.00000000E+00
  0.00000000E+00  0.00000000E+00  0.00000000E+00
  0.00000000E+00  0.00000000E+00  0.00000000E+00
  0.00000000E+00  0.00000000E+00  0.00000000E+00
