C    F    N    H    O                   
    1.000000000000000     
    17.2710380553999983    0.0000000000000000    0.0000000000000000
    -8.6355190276999991   14.9571577057000002    0.0000000000000000
     0.0000000000000000    0.0000000000000000   15.0000000000000000
   C    F    N    H    O 
    82     2     6     2     1
Selective dynamics
Direct
  0.0008545408751283  0.9987040703650888  0.5165057691419944   T   T   T
  0.0011099187430862  0.1417422154203484  0.5152752866408865   T   T   T
  0.0009700046047192  0.2845867841260469  0.5166581131551549   T   T   T
  0.0004844725059309  0.4274395301111429  0.5194346155051734   T   T   T
  0.0008807763469302  0.5703081606151044  0.5212978897159787   T   T   T
  0.0019771833351998  0.7134235909738376  0.5209346936693535   T   T   T
  0.0011830077455527  0.8563339969572494  0.5191842067793700   T   T   T
  0.1446729761480275 -0.0000960480583788  0.5161794001961102   T   T   T
  0.1453689175225113  0.1433812313596032  0.5150046775973173   T   T   T
  0.1447967273636283  0.2853820050829037  0.5164616449203325   T   T   T
  0.1434716851455334  0.4279733757769419  0.5194174559107005   T   T   T
  0.1443703881913132  0.5704666723943271  0.5215539011911648   T   T   T
  0.1447620983691406  0.7132452137351279  0.5212927377357700   T   T   T
  0.1444980304272381  0.8565174668324341  0.5190307379599899   T   T   T
  0.2874967773299029 -0.0006176414533142  0.5182246244055478   T   T   T
  0.2884066506281727  0.1431027037472852  0.5169023936483534   T   T   T
  0.2909968168507938  0.2889831877380518  0.5190315697628985   T   T   T
  0.2861839019103478  0.4319464194720900  0.5224810705168409   T   T   T
  0.2888287388274202  0.5683506632406683  0.5240860818182155   T   T   T
  0.2880197760588408  0.7130882493623865  0.5236950888823405   T   T   T
  0.2873530191308725  0.8562729578820066  0.5213641433950948   T   T   T
  0.4302984258459238 -0.0009245479582205  0.5206247725754316   T   T   T
  0.4305693689147929  0.1430646575530434  0.5187296823830508   T   T   T
  0.4301584882460443  0.8549693673091194  0.5238199845270455   T   T   T
  0.5722887718710771  0.9984242839584410  0.5216430733692193   T   T   T
  0.5724875039213604  0.1421018612981849  0.5194929340047685   T   T   T
  0.5749071944684000  0.2891327404656462  0.5202473889462824   T   T   T
  0.5743945139369083  0.8539465230677247  0.5253189311661253   T   T   T
  0.7146582041234057  0.9980623245647372  0.5213142685375290   T   T   T
  0.7151975513041104  0.1416606100439762  0.5190640753904243   T   T   T
  0.7147984724392403  0.2849704117786424  0.5198407936946103   T   T   T
  0.7102557109150264  0.4249224586870813  0.5229447503800732   T   T   T
  0.7102066388176334  0.8541731673850343  0.5266008543253295   T   T   T
  0.8574777231632842  0.9980920819708911  0.5193257408103673   T   T   T
  0.8577545263295605  0.1412445171434396  0.5174576991134560   T   T   T
  0.8577072593368767  0.2843632726350098  0.5184427217662931   T   T   T
  0.8573087245628541  0.4274071928395032  0.5212408948316022   T   T   T
  0.8574467841084592  0.5700696071769864  0.5233838158556039   T   T   T
  0.8593118519692836  0.7128923365420092  0.5241875087334880   T   T   T
  0.8562963340963003  0.8543344943788684  0.5226497219048197   T   T   T
  0.0493563959085544  0.0946381431042600  0.5148447969286262   T   T   T
  0.0489655407257925  0.2370857959917348  0.5155050436793188   T   T   T
  0.0479626787389037  0.3798660070499333  0.5181758123542840   T   T   T
  0.0487755769638654  0.5227992901338185  0.5206213773334866   T   T   T
  0.0492850938486481  0.6657101496688369  0.5211527260788683   T   T   T
  0.0490226565276267  0.8087269437616432  0.5195776579013870   T   T   T
  0.0490274405881753  0.9515915738597523  0.5168547961765723   T   T   T
  0.1927326866707396  0.0952592571875514  0.5156265364030644   T   T   T
  0.1940259682528679  0.2392050422470120  0.5162323410370883   T   T   T
  0.1908645765359064  0.3805764194181722  0.5190393196746257   T   T   T
  0.1922287647429955  0.5230999059167079  0.5216881092726703   T   T   T
  0.1923809411040590  0.6657435592441494  0.5223924967215553   T   T   T
  0.1921814903072515  0.8087888457541672  0.5206322066898667   T   T   T
  0.1923222388213718  0.9519451455286048  0.5175794453453778   T   T   T
  0.3354726119092520  0.0951502967049540  0.5177725459434812   T   T   T
  0.3400671939861861  0.2392378725282052  0.5185646089903749   T   T   T
  0.3392427116811522  0.6681953479137295  0.5248798696248873   T   T   T
  0.3351110311557085  0.8081692491181036  0.5231930403032027   T   T   T
  0.3348515240619984  0.9514810989307387  0.5202117497372374   T   T   T
  0.4776786165335496  0.0945002311194785  0.5194792560331321   T   T   T
  0.4756520566062930  0.2389957214580078  0.5193651307162175   T   T   T
  0.4750537486142541  0.8037400693262208  0.5250611265611667   T   T   T
  0.4774632956791026  0.9508280175674543  0.5222221863484934   T   T   T
  0.6197056409011438  0.0938918143370679  0.5198794343126555   T   T   T
  0.6197815782055772  0.2379637599488637  0.5195703219015300   T   T   T
  0.6194790189688899  0.9499231576162228  0.5228085270176052   T   T   T
  0.7626144694490993  0.0938176945461257  0.5191665740676602   T   T   T
  0.7625758298641236  0.2368740605147061  0.5189618843117365   T   T   T
  0.7616503876568570  0.3800794151384829  0.5212829338971817   T   T   T
  0.7606763627711015  0.5249522242933041  0.5253337297950857   T   T   T
  0.7640496971680052  0.6615745397411623  0.5291590393179993   T   T   T
  0.7594005516333229  0.8046208815251022  0.5281077554268321   T   T   T
  0.7618252021026444  0.9502378065623686  0.5223128669932989   T   T   T
  0.9054470101620927  0.0933758742317481  0.5170288387981653   T   T   T
  0.9054541118537510  0.2366561626712413  0.5171153163049423   T   T   T
  0.9049980460711221  0.3799165189269007  0.5195496003314961   T   T   T
  0.9052786759687868  0.5226796793903339  0.5219360434471744   T   T   T
  0.9064559518528712  0.6652708999189433  0.5227310642080524   T   T   T
  0.9054763939707692  0.8081193757173228  0.5219545710809034   T   T   T
  0.9049172162249830  0.9500829879242986  0.5191218717638393   T   T   T
  0.7174500507623780  0.7107879665945620  0.5341307043767780   T   T   T
  0.3330765571773313  0.3829412784929319  0.5233341990400838   T   T   T
  0.6291777804055193  0.6617696906897064  0.5456999505594702   T   T   T
  0.4220558602694890  0.4320947650886812  0.5292593117441273   T   T   T
  0.4300053907514655  0.2834614433380044  0.5194506656659272   T   T   T
  0.4291786769918548  0.7132726090838037  0.5255945189690669   T   T   T
  0.7170687234230895  0.5706203435182157  0.5292370935447522   T   T   T
  0.3327311148223608  0.5229198664212507  0.5251438710595197   T   T   T
  0.6203692061462491  0.3795200835658774  0.5220161209439171   T   T   T
  0.6202656875361638  0.8097927017521352  0.5278978225020021   T   T   T
  0.4590694175118180  0.5954916432019804  0.4477496102138288   T   T   T
  0.5170509749801614  0.5558135248287701  0.4202264585072596   T   T   T
  0.4870459780019075  0.5858293653655359  0.3953361829999977   T   T   F
 
  0.00000000E+00  0.00000000E+00  0.00000000E+00
  0.00000000E+00  0.00000000E+00  0.00000000E+00
  0.00000000E+00  0.00000000E+00  0.00000000E+00
  0.00000000E+00  0.00000000E+00  0.00000000E+00
  0.00000000E+00  0.00000000E+00  0.00000000E+00
  0.00000000E+00  0.00000000E+00  0.00000000E+00
  0.00000000E+00  0.00000000E+00  0.00000000E+00
  0.00000000E+00  0.00000000E+00  0.00000000E+00
  0.00000000E+00  0.00000000E+00  0.00000000E+00
  0.00000000E+00  0.00000000E+00  0.00000000E+00
  0.00000000E+00  0.00000000E+00  0.00000000E+00
  0.00000000E+00  0.00000000E+00  0.00000000E+00
  0.00000000E+00  0.00000000E+00  0.00000000E+00
  0.00000000E+00  0.00000000E+00  0.00000000E+00
  0.00000000E+00  0.00000000E+00  0.00000000E+00
  0.00000000E+00  0.00000000E+00  0.00000000E+00
  0.00000000E+00  0.00000000E+00  0.00000000E+00
  0.00000000E+00  0.00000000E+00  0.00000000E+00
  0.00000000E+00  0.00000000E+00  0.00000000E+00
  0.00000000E+00  0.00000000E+00  0.00000000E+00
  0.00000000E+00  0.00000000E+00  0.00000000E+00
  0.00000000E+00  0.00000000E+00  0.00000000E+00
  0.00000000E+00  0.00000000E+00  0.00000000E+00
  0.00000000E+00  0.00000000E+00  0.00000000E+00
  0.00000000E+00  0.00000000E+00  0.00000000E+00
  0.00000000E+00  0.00000000E+00  0.00000000E+00
  0.00000000E+00  0.00000000E+00  0.00000000E+00
  0.00000000E+00  0.00000000E+00  0.00000000E+00
  0.00000000E+00  0.00000000E+00  0.00000000E+00
  0.00000000E+00  0.00000000E+00  0.00000000E+00
  0.00000000E+00  0.00000000E+00  0.00000000E+00
  0.00000000E+00  0.00000000E+00  0.00000000E+00
  0.00000000E+00  0.00000000E+00  0.00000000E+00
  0.00000000E+00  0.00000000E+00  0.00000000E+00
  0.00000000E+00  0.00000000E+00  0.00000000E+00
  0.00000000E+00  0.00000000E+00  0.00000000E+00
  0.00000000E+00  0.00000000E+00  0.00000000E+00
  0.00000000E+00  0.00000000E+00  0.00000000E+00
  0.00000000E+00  0.00000000E+00  0.00000000E+00
  0.00000000E+00  0.00000000E+00  0.00000000E+00
  0.00000000E+00  0.00000000E+00  0.00000000E+00
  0.00000000E+00  0.00000000E+00  0.00000000E+00
  0.00000000E+00  0.00000000E+00  0.00000000E+00
  0.00000000E+00  0.00000000E+00  0.00000000E+00
  0.00000000E+00  0.00000000E+00  0.00000000E+00
  0.00000000E+00  0.00000000E+00  0.00000000E+00
  0.00000000E+00  0.00000000E+00  0.00000000E+00
  0.00000000E+00  0.00000000E+00  0.00000000E+00
  0.00000000E+00  0.00000000E+00  0.00000000E+00
  0.00000000E+00  0.00000000E+00  0.00000000E+00
  0.00000000E+00  0.00000000E+00  0.00000000E+00
  0.00000000E+00  0.00000000E+00  0.00000000E+00
  0.00000000E+00  0.00000000E+00  0.00000000E+00
  0.00000000E+00  0.00000000E+00  0.00000000E+00
  0.00000000E+00  0.00000000E+00  0.00000000E+00
  0.00000000E+00  0.00000000E+00  0.00000000E+00
  0.00000000E+00  0.00000000E+00  0.00000000E+00
  0.00000000E+00  0.00000000E+00  0.00000000E+00
  0.00000000E+00  0.00000000E+00  0.00000000E+00
  0.00000000E+00  0.00000000E+00  0.00000000E+00
  0.00000000E+00  0.00000000E+00  0.00000000E+00
  0.00000000E+00  0.00000000E+00  0.00000000E+00
  0.00000000E+00  0.00000000E+00  0.00000000E+00
  0.00000000E+00  0.00000000E+00  0.00000000E+00
  0.00000000E+00  0.00000000E+00  0.00000000E+00
  0.00000000E+00  0.00000000E+00  0.00000000E+00
  0.00000000E+00  0.00000000E+00  0.00000000E+00
  0.00000000E+00  0.00000000E+00  0.00000000E+00
  0.00000000E+00  0.00000000E+00  0.00000000E+00
  0.00000000E+00  0.00000000E+00  0.00000000E+00
  0.00000000E+00  0.00000000E+00  0.00000000E+00
  0.00000000E+00  0.00000000E+00  0.00000000E+00
  0.00000000E+00  0.00000000E+00  0.00000000E+00
  0.00000000E+00  0.00000000E+00  0.00000000E+00
  0.00000000E+00  0.00000000E+00  0.00000000E+00
  0.00000000E+00  0.00000000E+00  0.00000000E+00
  0.00000000E+00  0.00000000E+00  0.00000000E+00
  0.00000000E+00  0.00000000E+00  0.00000000E+00
  0.00000000E+00  0.00000000E+00  0.00000000E+00
  0.00000000E+00  0.00000000E+00  0.00000000E+00
  0.00000000E+00  0.00000000E+00  0.00000000E+00
  0.00000000E+00  0.00000000E+00  0.00000000E+00
  0.00000000E+00  0.00000000E+00  0.00000000E+00
  0.00000000E+00  0.00000000E+00  0.00000000E+00
  0.00000000E+00  0.00000000E+00  0.00000000E+00
  0.00000000E+00  0.00000000E+00  0.00000000E+00
  0.00000000E+00  0.00000000E+00  0.00000000E+00
  0.00000000E+00  0.00000000E+00  0.00000000E+00
  0.00000000E+00  0.00000000E+00  0.00000000E+00
  0.00000000E+00  0.00000000E+00  0.00000000E+00
  0.00000000E+00  0.00000000E+00  0.00000000E+00
  0.00000000E+00  0.00000000E+00  0.00000000E+00
  0.00000000E+00  0.00000000E+00  0.00000000E+00
