C    F    N    H    O 
    1.000000000000000     
  17.2710380553999983   0.0000000000000000   0.0000000000000000
  -8.6355190276999991  14.9571577057000002   0.0000000000000000
   0.0000000000000000   0.0000000000000000  15.0000000000000000
C    F    N    H    O 
82  2  6  2  1  
Selective dynamics
Direct
  0.9999756077749450  0.9999340384512280  0.5053930646277237 T T T
  0.0002344833366022  0.1429758397618965  0.5050782266274308 T T T
  0.0001737413066891  0.2858819820083965  0.5038896365729809 T T T
  0.9998229691377430  0.4288323417454469  0.5028971379468925 T T T
  0.0001691201360779  0.5715996050704462  0.5026637163441301 T T T
  0.0010926666187429  0.7146116144957202  0.5028148364533973 T T T
  0.0002787686548880  0.8574971195123751  0.5042625282845672 T T T
  0.1438003471238435  0.0010461535157352  0.5057561866500235 T T T
  0.1442554603640642  0.1443524654702519  0.5071156312110539 T T T
  0.1437903993050210  0.2864207725718832  0.5073997636534046 T T T
  0.1427859799405760  0.4292061474294335  0.5054295389171025 T T T
  0.1438465555063503  0.5717207499897039  0.5039224275744197 T T T
  0.1440988827738085  0.7144845245975973  0.5030091150536844 T T T
  0.1436708842739287  0.8577290297834473  0.5037155971950557 T T T
  0.2865774967437705  0.0005342257619542  0.5056228667877171 T T T
  0.2873271096518148  0.1441212329185775  0.5093033294760261 T T T
  0.2895420919345272  0.2895352299710047  0.5152401013421554 T T T
  0.2852055065302088  0.4327812873313182  0.5150842957227669 T T T
  0.2885687608770379  0.5694538651020435  0.5089234393288072 T T T
  0.2874795225039112  0.7142526612563408  0.5048548220133702 T T T
  0.2865875758997180  0.8574983337522061  0.5041196675932882 T T T
  0.4294221575956835  0.0004090552690684  0.5054659114630288 T T T
  0.4296541299820266  0.1443448761631221  0.5074818627012404 T T T
  0.4294591935196027  0.8564167591005456  0.5051916780130169 T T T
  0.5715877817524136  0.9999010899242440  0.5053147165375933 T T T
  0.5716963785294091  0.1435603507089095  0.5054451633669704 T T T
  0.5738581616020811  0.2905286070289207  0.5066885388028948 T T T
  0.5736347227280102  0.8554068532991842  0.5064086545623195 T T T
  0.7139286981805865  0.9995658863919532  0.5054650833601615 T T T
  0.7143587861244365  0.1430881111638117  0.5043570508775174 T T T
  0.7139144478517634  0.2863360760528773  0.5042081986829471 T T T
  0.7094101611147378  0.4263065948180252  0.5055699896682223 T T T
  0.7094120772587922  0.8555654983426407  0.5086708904278596 T T T
  0.8566335968806988  0.9994105841359648  0.5057034767145547 T T T
  0.8569893828381752  0.1426958972196012  0.5042900785421521 T T T
  0.8569218418320527  0.2857991920440530  0.5032635392520043 T T T
  0.8564730788114451  0.4287729053289885  0.5032885325734935 T T T
  0.8565999281664566  0.5713915767956160  0.5041653445519928 T T T
  0.8583193464314520  0.7141210912583414  0.5057808400940315 T T T
  0.8553996755359587  0.8556096261107292  0.5064085767035765 T T T
  0.0483589779504809  0.0957875288457553  0.5056672929451526 T T T
  0.0480488212637164  0.2382832196905006  0.5051104874578874 T T T
  0.0472418814909411  0.3811771124999561  0.5036200915063082 T T T
  0.0482087911073679  0.5242027114741956  0.5029086237468008 T T T
  0.0485271189068716  0.6669872784700075  0.5025977392678389 T T T
  0.0481723383181217  0.8099271812490102  0.5033901291886119 T T T
  0.0481275058302686  0.9527701508733740  0.5050063936534558 T T T
  0.1917308590472340  0.0963735477116953  0.5075972180692870 T T T
  0.1928466450217402  0.2400905371840295  0.5091340176574219 T T T
  0.1899794129192127  0.3816231397130073  0.5083503831764357 T T T
  0.1917753516989305  0.5243939144597751  0.5057892193194494 T T T
  0.1918630439082240  0.6670181209826417  0.5038362314970628 T T T
  0.1914446485405845  0.8100415863117197  0.5034487229587372 T T T
  0.1914317875401960  0.9531272715916240  0.5050136756996720 T T T
  0.3344719537204209  0.0962506673618355  0.5074646036772985 T T T
  0.3388378851537499  0.2401490740821629  0.5128982813058520 T T T
  0.3388968308535545  0.6694086544529401  0.5068090771030229 T T T
  0.3343709017712267  0.8094131115861259  0.5045315092457129 T T T
  0.3340209437627311  0.9527250617352082  0.5049504763315380 T T T
  0.4768172371953619  0.0958954264071208  0.5061187442842596 T T T
  0.4746400890085075  0.2403863083130032  0.5087088440331210 T T T
  0.4744282992129673  0.8052443538515246  0.5059833829240882 T T T
  0.4766867001512208  0.9522141634642012  0.5052511163521090 T T T
  0.6189582223427142  0.0953879580985059  0.5049548210067338 T T T
  0.6188461215296189  0.2393537528676464  0.5053002899263872 T T T
  0.6187490398036367  0.9514658798635474  0.5056223953808480 T T T
  0.7618435500261161  0.0953183769232361  0.5045884685780495 T T T
  0.7617554639078176  0.2383157593977820  0.5037941098176566 T T T
  0.7608157476003125  0.3814776440536392  0.5041530127859907 T T T
  0.7597544676445828  0.5262511363695395  0.5064041421949531 T T T
  0.7630014160306726  0.6628448033088760  0.5101244261753338 T T T
  0.7585548105801907  0.8060246099132894  0.5101860970604132 T T T
  0.7610093033424349  0.9516496371303986  0.5065036911720037 T T T
  0.9045945689282248  0.0947428862179343  0.5048890404980441 T T T
  0.9047010496963076  0.2381165771762808  0.5035965136248257 T T T
  0.9042484580173272  0.3813249763232558  0.5029206283384551 T T T
  0.9045234013312018  0.5240746678319587  0.5030838772664431 T T T
  0.9055454514944372  0.6665744154343416  0.5039217748695090 T T T
  0.9044974038786529  0.8093286791538497  0.5053414444890574 T T T
  0.9040632210604820  0.9513977087845032  0.5055198419519177 T T T
  0.7165745429533824  0.7121737259774567  0.5156883826371590 T T T
  0.3312016536527146  0.3831643590880106  0.5233596969828307 T T T
  0.6284811754542078  0.6636598143653314  0.5285379690293083 T T T
  0.4183283902738467  0.4307838457275751  0.5418469685184658 T T T
  0.4288210049443338  0.2845832012053179  0.5118870693890065 T T T
  0.4288297956960959  0.7148062624802671  0.5069534501448748 T T T
  0.7160101016699892  0.5718381678514852  0.5100853077669930 T T T
  0.3322171686218100  0.5238222670980162  0.5147590835835305 T T T
  0.6194867535011653  0.3809441043509146  0.5066511587027053 T T T
  0.6194366439348329  0.8111821905439107  0.5081980647423893 T T T
  0.4884081938150641  0.5671983185157191  0.4368275706185187 T T T
  0.5416212007048157  0.5179413897205575  0.4336522045549205 T T T
  0.5115030360593449  0.5401911952618077  0.3953361829999977 T T F
