C4                                      
    1.000000000000000     
    17.2710380553999983    0.0000000000000000    0.0000000000000000
    -8.6355190276999991   14.9571577057000002    0.0000000000000000
     0.0000000000000000    0.0000000000000000   15.0000000000000000
   C    H    F 
    88     4     4
Direct
 -0.0003561366315669 -0.0002873538888095  0.2499990498651875
 -0.0007404616560836  0.1421197668889690  0.2499987091297682
 -0.0011702261735292  0.2847172240506332  0.2499993222047493
 -0.0008925024201963  0.4280941597161159  0.2499993664492770
  0.0006096018841833  0.5717497013918855  0.2499997725777537
  0.0023669445821434  0.7154052918805582  0.2499997625780063
  0.0013418945077020  0.8583011721347279  0.2499992074988089
  0.1435124822318137  0.0013706738070043  0.2499990098535526
  0.1435376791084501  0.1444628129314586  0.2499996473291674
  0.1411764044986648  0.2853027830770318  0.2499978817864865
  0.1394873284378494  0.4282672281760857  0.2499964866160523
  0.1413806143448860  0.5717358649335175  0.2500008641732607
  0.1429792171595623  0.7153508831714748  0.2500003024100232
  0.1435210615034615  0.8585230080688446  0.2499984346933316
  0.2857995255704600  0.0008666906648758  0.2499982628588469
  0.2860670493243920  0.1437110098882131  0.2500031668562540
  0.2884516362604691  0.2906489237267328  0.2500020256972048
  0.2790981027387551  0.4294086606142028  0.2499965706676438
  0.2824216975759096  0.5713855714815964  0.2500000645203651
  0.2836054681724837  0.7156268800036978  0.2500024270576944
  0.2852531375871202  0.8584649094763637  0.2499984857889870
  0.4285227612605232  0.0001462317587193  0.2499974004146601
  0.4289519101060010  0.1418111027084137  0.2500019765478373
  0.4268379543220021  0.2781381917522973  0.2499963820574462
  0.4225803765748029  0.7155247197286805  0.2499949197151218
  0.4272734859624657  0.8576465284477838  0.2499988648485757
  0.5709664326292325  0.0006029582127803  0.2499943387848464
  0.5719102907600399  0.1426601674626636  0.2500001184076825
  0.5740362215364532  0.2862345084975545  0.2500004611936908
  0.5701416657703455  0.8591595293343541  0.2499956998486954
  0.7138625744209749 -0.0007199017271961  0.2499955159265494
  0.7144397781668680  0.1421113554990057  0.2500013272296723
  0.7152922559504690  0.2848106872623551  0.2500024237110542
  0.7171455314439551  0.4269482860202885  0.2500009593612510
  0.7211051125596427  0.5719715223299143  0.2500012852825141
  0.7201158101824010  0.7109464094049385  0.2499866291961229
  0.7129950754304015  0.8559361624572096  0.2499966637348968
  0.8564858584481206 -0.0011087499315124  0.2499961476291604
  0.8566608909431229  0.1417700254431460  0.2499992711492028
  0.8569830255494713  0.2845889142245783  0.2500026849034011
  0.8584498775355264  0.4279451589586003  0.2500013599490902
  0.8600738194695372  0.5717861227742124  0.2500003150078770
  0.8620947419009013  0.7152797028390500  0.2500023864668229
  0.8561561640468921  0.8549705180352052  0.2500042915715386
  0.0477251446711701  0.0955195913558305  0.2499986395579229
  0.0461180860786310  0.2369726619299063  0.2499998943437021
  0.0451776336825683  0.3798999905791860  0.2499982415495335
  0.0469760502989118  0.5235738328578041  0.2499993878611003
  0.0484900661755879  0.6672552666696071  0.2499995992542181
  0.0487507691942376  0.8106230744980306  0.2499990340416414
  0.0482317605086800  0.9531921196033152  0.2499988059594414
  0.1908728454645541  0.0963229643498282  0.2500014341756391
  0.1911607932706949  0.2401855586844112  0.2499976270107213
  0.1853414250688500  0.3799992637099812  0.2499926699200087
  0.1874380628572143  0.5234734273383076  0.2499997923336607
  0.1891403735328361  0.6674048806886996  0.2500022349085412
  0.1905345958846444  0.8107543845915153  0.2499991042965820
  0.1909438847934836  0.9535917805635382  0.2499981029646086
  0.3337168654895977  0.0959752485942058  0.2500016323305504
  0.3344365008588169  0.2391730615354111  0.2500022376994357
  0.3270977754217120  0.3840459078204156  0.2500093636818232
  0.3262701543723981  0.5232255794935187  0.2499999169661633
  0.3303984884693134  0.6683889035680107  0.2499996429930182
  0.3323021068429326  0.8106029024438509  0.2500001857987154
  0.3331510103045642  0.9532905554563699  0.2499972437191959
  0.4767120857604269  0.0947543582942599  0.2499997393611408
  0.4774526744941148  0.2361647658056148  0.2499998574592366
  0.4735620319784377  0.8090658123424921  0.2499994324000760
  0.4757766615852980  0.9527129894819159  0.2499960609604132
  0.6191355291803547  0.0952210693509066  0.2499993236019286
  0.6203634679595433  0.2376822167200172  0.2500010073520605
  0.6249481852069827  0.3797532951938728  0.2500014584596125
  0.6206472470748614  0.8170729368912779  0.2500020955785230
  0.6186756431669651  0.9535259514735677  0.2499915842630391
  0.7617831029883131  0.0944714456968284  0.2499983974847377
  0.7622761826826737  0.2369210303481204  0.2500033777711484
  0.7640069278188503  0.3797557617687477  0.2500013617077936
  0.7650542258283345  0.5239077450088110  0.2500010253021546
  0.7683227869276127  0.6657841097475391  0.2500029972047510
  0.7588840179411117  0.8043818734098603  0.2500005081392027
  0.7613191336017728  0.9513803611249583  0.2499929503697552
  0.9040047315648808  0.0938617237655492  0.2499974016558224
  0.9040384853892649  0.2368453880650303  0.2500009544133992
  0.9046021431692916  0.3800230866850406  0.2500014493663305
  0.9062031337778848  0.5235808842509447  0.2500003662393542
  0.9079757121351814  0.6669969524337727  0.2500008949749071
  0.9062614206092843  0.8099726895002363  0.2500007731836145
  0.9037959274740359  0.9507185722892538  0.2500002354747030
  0.3984973668489150  0.5568053693707525  0.2500019519684069
  0.6488847919333467  0.5384046429713801  0.2500008014300188
  0.5931953479789611  0.4192425411634526  0.2500023976743821
  0.4542783416035477  0.6759954591000784  0.2499898035998908
  0.4752092342824300  0.3671755261432805  0.2500001032580776
  0.4153753257271384  0.4463475280255950  0.2500524836809355
  0.6318228625397592  0.6485174179538532  0.2499376361268723
  0.5722753155718322  0.7280068114729238  0.2500665346213565
 
  0.00000000E+00  0.00000000E+00  0.00000000E+00
  0.00000000E+00  0.00000000E+00  0.00000000E+00
  0.00000000E+00  0.00000000E+00  0.00000000E+00
  0.00000000E+00  0.00000000E+00  0.00000000E+00
  0.00000000E+00  0.00000000E+00  0.00000000E+00
  0.00000000E+00  0.00000000E+00  0.00000000E+00
  0.00000000E+00  0.00000000E+00  0.00000000E+00
  0.00000000E+00  0.00000000E+00  0.00000000E+00
  0.00000000E+00  0.00000000E+00  0.00000000E+00
  0.00000000E+00  0.00000000E+00  0.00000000E+00
  0.00000000E+00  0.00000000E+00  0.00000000E+00
  0.00000000E+00  0.00000000E+00  0.00000000E+00
  0.00000000E+00  0.00000000E+00  0.00000000E+00
  0.00000000E+00  0.00000000E+00  0.00000000E+00
  0.00000000E+00  0.00000000E+00  0.00000000E+00
  0.00000000E+00  0.00000000E+00  0.00000000E+00
  0.00000000E+00  0.00000000E+00  0.00000000E+00
  0.00000000E+00  0.00000000E+00  0.00000000E+00
  0.00000000E+00  0.00000000E+00  0.00000000E+00
  0.00000000E+00  0.00000000E+00  0.00000000E+00
  0.00000000E+00  0.00000000E+00  0.00000000E+00
  0.00000000E+00  0.00000000E+00  0.00000000E+00
  0.00000000E+00  0.00000000E+00  0.00000000E+00
  0.00000000E+00  0.00000000E+00  0.00000000E+00
  0.00000000E+00  0.00000000E+00  0.00000000E+00
  0.00000000E+00  0.00000000E+00  0.00000000E+00
  0.00000000E+00  0.00000000E+00  0.00000000E+00
  0.00000000E+00  0.00000000E+00  0.00000000E+00
  0.00000000E+00  0.00000000E+00  0.00000000E+00
  0.00000000E+00  0.00000000E+00  0.00000000E+00
  0.00000000E+00  0.00000000E+00  0.00000000E+00
  0.00000000E+00  0.00000000E+00  0.00000000E+00
  0.00000000E+00  0.00000000E+00  0.00000000E+00
  0.00000000E+00  0.00000000E+00  0.00000000E+00
  0.00000000E+00  0.00000000E+00  0.00000000E+00
  0.00000000E+00  0.00000000E+00  0.00000000E+00
  0.00000000E+00  0.00000000E+00  0.00000000E+00
  0.00000000E+00  0.00000000E+00  0.00000000E+00
  0.00000000E+00  0.00000000E+00  0.00000000E+00
  0.00000000E+00  0.00000000E+00  0.00000000E+00
  0.00000000E+00  0.00000000E+00  0.00000000E+00
  0.00000000E+00  0.00000000E+00  0.00000000E+00
  0.00000000E+00  0.00000000E+00  0.00000000E+00
  0.00000000E+00  0.00000000E+00  0.00000000E+00
  0.00000000E+00  0.00000000E+00  0.00000000E+00
  0.00000000E+00  0.00000000E+00  0.00000000E+00
  0.00000000E+00  0.00000000E+00  0.00000000E+00
  0.00000000E+00  0.00000000E+00  0.00000000E+00
  0.00000000E+00  0.00000000E+00  0.00000000E+00
  0.00000000E+00  0.00000000E+00  0.00000000E+00
  0.00000000E+00  0.00000000E+00  0.00000000E+00
  0.00000000E+00  0.00000000E+00  0.00000000E+00
  0.00000000E+00  0.00000000E+00  0.00000000E+00
  0.00000000E+00  0.00000000E+00  0.00000000E+00
  0.00000000E+00  0.00000000E+00  0.00000000E+00
  0.00000000E+00  0.00000000E+00  0.00000000E+00
  0.00000000E+00  0.00000000E+00  0.00000000E+00
  0.00000000E+00  0.00000000E+00  0.00000000E+00
  0.00000000E+00  0.00000000E+00  0.00000000E+00
  0.00000000E+00  0.00000000E+00  0.00000000E+00
  0.00000000E+00  0.00000000E+00  0.00000000E+00
  0.00000000E+00  0.00000000E+00  0.00000000E+00
  0.00000000E+00  0.00000000E+00  0.00000000E+00
  0.00000000E+00  0.00000000E+00  0.00000000E+00
  0.00000000E+00  0.00000000E+00  0.00000000E+00
  0.00000000E+00  0.00000000E+00  0.00000000E+00
  0.00000000E+00  0.00000000E+00  0.00000000E+00
  0.00000000E+00  0.00000000E+00  0.00000000E+00
  0.00000000E+00  0.00000000E+00  0.00000000E+00
  0.00000000E+00  0.00000000E+00  0.00000000E+00
  0.00000000E+00  0.00000000E+00  0.00000000E+00
  0.00000000E+00  0.00000000E+00  0.00000000E+00
  0.00000000E+00  0.00000000E+00  0.00000000E+00
  0.00000000E+00  0.00000000E+00  0.00000000E+00
  0.00000000E+00  0.00000000E+00  0.00000000E+00
  0.00000000E+00  0.00000000E+00  0.00000000E+00
  0.00000000E+00  0.00000000E+00  0.00000000E+00
  0.00000000E+00  0.00000000E+00  0.00000000E+00
  0.00000000E+00  0.00000000E+00  0.00000000E+00
  0.00000000E+00  0.00000000E+00  0.00000000E+00
  0.00000000E+00  0.00000000E+00  0.00000000E+00
  0.00000000E+00  0.00000000E+00  0.00000000E+00
  0.00000000E+00  0.00000000E+00  0.00000000E+00
  0.00000000E+00  0.00000000E+00  0.00000000E+00
  0.00000000E+00  0.00000000E+00  0.00000000E+00
  0.00000000E+00  0.00000000E+00  0.00000000E+00
  0.00000000E+00  0.00000000E+00  0.00000000E+00
  0.00000000E+00  0.00000000E+00  0.00000000E+00
  0.00000000E+00  0.00000000E+00  0.00000000E+00
  0.00000000E+00  0.00000000E+00  0.00000000E+00
  0.00000000E+00  0.00000000E+00  0.00000000E+00
  0.00000000E+00  0.00000000E+00  0.00000000E+00
  0.00000000E+00  0.00000000E+00  0.00000000E+00
  0.00000000E+00  0.00000000E+00  0.00000000E+00
  0.00000000E+00  0.00000000E+00  0.00000000E+00
  0.00000000E+00  0.00000000E+00  0.00000000E+00
