C4                                      
    1.000000000000000     
    17.2710380553999983    0.0000000000000000    0.0000000000000000
    -8.6355190276999991   14.9571577057000002    0.0000000000000000
     0.0000000000000000    0.0000000000000000   15.0000000000000000
   C    H    N 
    84     4     4
Direct
 -0.0000471262968162 -0.0000808839624647  0.2500007158261150
 -0.0006477609446134  0.1422770820297391  0.2500005938443295
 -0.0006795533086314  0.2853593426099283  0.2500004753823328
 -0.0004988841826334  0.4284246326387040  0.2499994711965698
 -0.0002235517093628  0.5713762183851360  0.2499995083203682
  0.0007445402190603  0.7146330554250322  0.2499997176703064
  0.0012061102925737  0.8579690899372088  0.2500010694009001
  0.1436695389565208  0.0005124024063910  0.2500007201727596
  0.1432202335340226  0.1430609100241332  0.2499997210023390
  0.1418078542505416  0.2842188585101039  0.2499999632683351
  0.1425826712067615  0.4275195525027147  0.2499998719150403
  0.1435274348688285  0.5706422461312806  0.2499995990541303
  0.1437543073386330  0.7137456453086068  0.2499996388751279
  0.1436170697664483  0.8569087716104973  0.2499996006044850
  0.2856720974426617 -0.0007093365017598  0.2500007126285061
  0.2863501099451825  0.1435619184047585  0.2499995873079988
  0.2876378937188589  0.2897953289392427  0.2499997799783997
  0.2845830520344793  0.4236645547706697  0.2500001432575044
  0.2874366548022433  0.5682932575733887  0.2499996797335176
  0.2872220724777104  0.7133421257632431  0.2499998457000655
  0.2865555936135489  0.8565653891113737  0.2499998949240026
  0.4288750701815850 -0.0001358809816330  0.2499996742709540
  0.4275312532500881  0.1425136941264706  0.2499997214169160
  0.4296274017547954  0.7153196279126737  0.2499997372633911
  0.4300165320088493  0.8567478090509242  0.2499998658490285
  0.5716415596808778  0.0001653288066964  0.2499995574268275
  0.5708267618294124  0.1430557745267394  0.2499995650842273
  0.5696702946071616  0.2865054580118321  0.2499993820991524
  0.5756005879369213  0.8573736128181311  0.2499994883916652
  0.7146637564053306  0.0002163979804020  0.2500004644501229
  0.7139816057624327  0.1433319858410919  0.2500005385751223
  0.7128373707822774  0.2865035002076256  0.2499993462260275
  0.7113783760230028  0.4290391662030330  0.2500014063092610
  0.7163717781271302  0.5767997580609873  0.2500006738966720
  0.7100841462646260  0.8553678404473881  0.2499995250945655
  0.8565288062822658 -0.0005098372256545  0.2500002143129735
  0.8567511819690280  0.1429695389099440  0.2499986901504349
  0.8562484220681792  0.2859296048926823  0.2500004831358351
  0.8560352815787353  0.4289853611432023  0.2499995393347204
  0.8564395626983159  0.5725549258019929  0.2500022226386089
  0.8586515248057485  0.7163734389333399  0.2500009550315804
  0.8566991501586497  0.8569568820040372  0.2499997932331894
  0.0477270398449115  0.0952421219809607  0.2500020063906208
  0.0464054555611118  0.2370801484740534  0.2499999053752689
  0.0469641119372518  0.3805395946770960  0.2499996549488535
  0.0478279562344285  0.5237199571876167  0.2499995485366229
  0.0481712383594848  0.6667129758414070  0.2499995884819273
  0.0483853504098578  0.8097591135347287  0.2499997128710069
  0.0483089664189083  0.9528362815062242  0.2500014882205395
  0.1910093758539928  0.0955497076840584  0.2499996822919491
  0.1908904271021787  0.2381269645315959  0.2499997577883923
  0.1889094658772222  0.3786259208250276  0.2500002647703249
  0.1911204924797653  0.5225936933042784  0.2499996750305542
  0.1915031339718052  0.6661631955277627  0.2499996637159080
  0.1913810292351707  0.8092239026520339  0.2499996962592381
  0.1908360343876633  0.9520746171044284  0.2499997794136102
  0.3328687010823801  0.0948784343531228  0.2499997093002745
  0.3373729246817592  0.2397151275019332  0.2499997078148543
  0.3311746595639095  0.5184352625136580  0.2499997715989586
  0.3360929306154917  0.6662275754798379  0.2499997181293924
  0.3346477049513601  0.8087143462415375  0.2499974618406422
  0.3335027659852115  0.9517852319168816  0.2499996767284734
  0.4758202573671477  0.0951308781124519  0.2499996379099178
  0.4718695073754535  0.2378660049259978  0.2499996027046356
  0.4778264774524996  0.8088181295637654  0.2499996459366255
  0.4766192083029835  0.9522501202350433  0.2499996952370339
  0.6185688437744550  0.0954313123383482  0.2499996776230399
  0.6174340722311698  0.2385466133099224  0.2499995785970369
  0.6178954786811233  0.3799599631138307  0.2499998320721964
  0.6199796112968480  0.9527485583236515  0.2499995860428262
  0.7618213013200800  0.0957579431228313  0.2500008114270578
  0.7610008055923706  0.2385952971228585  0.2499998111038277
  0.7602966427045564  0.3819284511872957  0.2499998325325501
  0.7601282853040341  0.5269932093566406  0.2500031273799500
  0.7629986326463697  0.6714922048025102  0.2500021211199915
  0.7599384686784516  0.8053187128220063  0.2499978427699747
  0.7611460485416831  0.9514378255667841  0.2499997940321406
  0.9039742420672082  0.0945361678305929  0.2500007543608871
  0.9040273612537685  0.2381947962463955  0.2500008049694985
  0.9038646912318006  0.3814313629697523  0.2499995312340749
  0.9040524559943294  0.5245148162936201  0.2500000242610326
  0.9050972468722283  0.6675924650605281  0.2500009449544687
  0.9057895027200964  0.8108273339521271  0.2500005426470508
  0.9044115084175254  0.9520367773559362  0.2499996338333189
  0.4038541905879791  0.5511576514856384  0.2499997741047479
  0.6437053071247689  0.5441148774103072  0.2500000875740471
  0.5784046490849712  0.4131582623193501  0.2499999240617682
  0.4691718595889682  0.6821722163094088  0.2499998380367186
  0.4272315448275799  0.2836752232325902  0.2499997844084206
  0.7159291760741774  0.7159839275098774  0.2500004485848638
  0.3316707748931405  0.3791737490308253  0.2499998129118657
  0.6202278728599869  0.8115141131040662  0.2499998738066114
 
  0.00000000E+00  0.00000000E+00  0.00000000E+00
  0.00000000E+00  0.00000000E+00  0.00000000E+00
  0.00000000E+00  0.00000000E+00  0.00000000E+00
  0.00000000E+00  0.00000000E+00  0.00000000E+00
  0.00000000E+00  0.00000000E+00  0.00000000E+00
  0.00000000E+00  0.00000000E+00  0.00000000E+00
  0.00000000E+00  0.00000000E+00  0.00000000E+00
  0.00000000E+00  0.00000000E+00  0.00000000E+00
  0.00000000E+00  0.00000000E+00  0.00000000E+00
  0.00000000E+00  0.00000000E+00  0.00000000E+00
  0.00000000E+00  0.00000000E+00  0.00000000E+00
  0.00000000E+00  0.00000000E+00  0.00000000E+00
  0.00000000E+00  0.00000000E+00  0.00000000E+00
  0.00000000E+00  0.00000000E+00  0.00000000E+00
  0.00000000E+00  0.00000000E+00  0.00000000E+00
  0.00000000E+00  0.00000000E+00  0.00000000E+00
  0.00000000E+00  0.00000000E+00  0.00000000E+00
  0.00000000E+00  0.00000000E+00  0.00000000E+00
  0.00000000E+00  0.00000000E+00  0.00000000E+00
  0.00000000E+00  0.00000000E+00  0.00000000E+00
  0.00000000E+00  0.00000000E+00  0.00000000E+00
  0.00000000E+00  0.00000000E+00  0.00000000E+00
  0.00000000E+00  0.00000000E+00  0.00000000E+00
  0.00000000E+00  0.00000000E+00  0.00000000E+00
  0.00000000E+00  0.00000000E+00  0.00000000E+00
  0.00000000E+00  0.00000000E+00  0.00000000E+00
  0.00000000E+00  0.00000000E+00  0.00000000E+00
  0.00000000E+00  0.00000000E+00  0.00000000E+00
  0.00000000E+00  0.00000000E+00  0.00000000E+00
  0.00000000E+00  0.00000000E+00  0.00000000E+00
  0.00000000E+00  0.00000000E+00  0.00000000E+00
  0.00000000E+00  0.00000000E+00  0.00000000E+00
  0.00000000E+00  0.00000000E+00  0.00000000E+00
  0.00000000E+00  0.00000000E+00  0.00000000E+00
  0.00000000E+00  0.00000000E+00  0.00000000E+00
  0.00000000E+00  0.00000000E+00  0.00000000E+00
  0.00000000E+00  0.00000000E+00  0.00000000E+00
  0.00000000E+00  0.00000000E+00  0.00000000E+00
  0.00000000E+00  0.00000000E+00  0.00000000E+00
  0.00000000E+00  0.00000000E+00  0.00000000E+00
  0.00000000E+00  0.00000000E+00  0.00000000E+00
  0.00000000E+00  0.00000000E+00  0.00000000E+00
  0.00000000E+00  0.00000000E+00  0.00000000E+00
  0.00000000E+00  0.00000000E+00  0.00000000E+00
  0.00000000E+00  0.00000000E+00  0.00000000E+00
  0.00000000E+00  0.00000000E+00  0.00000000E+00
  0.00000000E+00  0.00000000E+00  0.00000000E+00
  0.00000000E+00  0.00000000E+00  0.00000000E+00
  0.00000000E+00  0.00000000E+00  0.00000000E+00
  0.00000000E+00  0.00000000E+00  0.00000000E+00
  0.00000000E+00  0.00000000E+00  0.00000000E+00
  0.00000000E+00  0.00000000E+00  0.00000000E+00
  0.00000000E+00  0.00000000E+00  0.00000000E+00
  0.00000000E+00  0.00000000E+00  0.00000000E+00
  0.00000000E+00  0.00000000E+00  0.00000000E+00
  0.00000000E+00  0.00000000E+00  0.00000000E+00
  0.00000000E+00  0.00000000E+00  0.00000000E+00
  0.00000000E+00  0.00000000E+00  0.00000000E+00
  0.00000000E+00  0.00000000E+00  0.00000000E+00
  0.00000000E+00  0.00000000E+00  0.00000000E+00
  0.00000000E+00  0.00000000E+00  0.00000000E+00
  0.00000000E+00  0.00000000E+00  0.00000000E+00
  0.00000000E+00  0.00000000E+00  0.00000000E+00
  0.00000000E+00  0.00000000E+00  0.00000000E+00
  0.00000000E+00  0.00000000E+00  0.00000000E+00
  0.00000000E+00  0.00000000E+00  0.00000000E+00
  0.00000000E+00  0.00000000E+00  0.00000000E+00
  0.00000000E+00  0.00000000E+00  0.00000000E+00
  0.00000000E+00  0.00000000E+00  0.00000000E+00
  0.00000000E+00  0.00000000E+00  0.00000000E+00
  0.00000000E+00  0.00000000E+00  0.00000000E+00
  0.00000000E+00  0.00000000E+00  0.00000000E+00
  0.00000000E+00  0.00000000E+00  0.00000000E+00
  0.00000000E+00  0.00000000E+00  0.00000000E+00
  0.00000000E+00  0.00000000E+00  0.00000000E+00
  0.00000000E+00  0.00000000E+00  0.00000000E+00
  0.00000000E+00  0.00000000E+00  0.00000000E+00
  0.00000000E+00  0.00000000E+00  0.00000000E+00
  0.00000000E+00  0.00000000E+00  0.00000000E+00
  0.00000000E+00  0.00000000E+00  0.00000000E+00
  0.00000000E+00  0.00000000E+00  0.00000000E+00
  0.00000000E+00  0.00000000E+00  0.00000000E+00
  0.00000000E+00  0.00000000E+00  0.00000000E+00
  0.00000000E+00  0.00000000E+00  0.00000000E+00
  0.00000000E+00  0.00000000E+00  0.00000000E+00
  0.00000000E+00  0.00000000E+00  0.00000000E+00
  0.00000000E+00  0.00000000E+00  0.00000000E+00
  0.00000000E+00  0.00000000E+00  0.00000000E+00
  0.00000000E+00  0.00000000E+00  0.00000000E+00
  0.00000000E+00  0.00000000E+00  0.00000000E+00
  0.00000000E+00  0.00000000E+00  0.00000000E+00
  0.00000000E+00  0.00000000E+00  0.00000000E+00
