C    F    N    H    O                   
    1.000000000000000     
    17.2710380553999983    0.0000000000000000    0.0000000000000000
    -8.6355190276999991   14.9571577057000002    0.0000000000000000
     0.0000000000000000    0.0000000000000000   15.0000000000000000
   C    F    N    H    O 
    82     2     6     2     1
Selective dynamics
Direct
  0.9992183584061031  0.0023656496240147  0.5053688650323416   T   T   T
  0.9994532656613356  0.1453758466135798  0.5049467025560358   T   T   T
  0.0002615020187682  0.2890091745467728  0.5044173295258968   T   T   T
  0.0007346914917329  0.4320681174988394  0.5046999473903828   T   T   T
  0.0011535549105294  0.5748753449902926  0.5054339940647359   T   T   T
  0.0015269574470617  0.7178271781371048  0.5059255119411107   T   T   T
  0.0000992594124683  0.8604099011258006  0.5057924235562091   T   T   T
  0.1435330035414331  0.0040446901235901  0.5047673217926056   T   T   T
  0.1432423763133560  0.1463696270018333  0.5044795250544539   T   T   T
  0.1425837347839018  0.2880472388653509  0.5044538306804470   T   T   T
  0.1441636210729957  0.4321571030717862  0.5049790565118303   T   T   T
  0.1451249277047431  0.5748453003729199  0.5056735504595380   T   T   T
  0.1445793947155727  0.7178117056381792  0.5057182419295152   T   T   T
  0.1437458017923270  0.8609826383928190  0.5052953275395761   T   T   T
  0.2865266667569992  0.0042645028793575  0.5052608351599350   T   T   T
  0.2872281638558661  0.1480244050660872  0.5048152521739276   T   T   T
  0.2882328868400185  0.2935458867351453  0.5053886829476842   T   T   T
  0.2853855258642886  0.4270999045255295  0.5063275513108564   T   T   T
  0.2906046037083798  0.5751339510111402  0.5071476922195766   T   T   T
  0.2879104718786317  0.7184488585140679  0.5068465459087279   T   T   T
  0.2867320024854806  0.8613522724165830  0.5060438273378435   T   T   T
  0.4294681793077564  0.0045820514346725  0.5063522483987042   T   T   T
  0.4295492854860294  0.1484639953663395  0.5059715932003308   T   T   T
  0.4297103973013253  0.8609225842465792  0.5072308401018087   T   T   T
  0.5716844480883418  0.0039866185389897  0.5071073820879873   T   T   T
  0.5717212294010574  0.1474798386954863  0.5065245739697574   T   T   T
  0.5740439610936959  0.2943378116666521  0.5076410252536412   T   T   T
  0.5736973275850736  0.8596024297091903  0.5086945210317995   T   T   T
  0.7138565797592766  0.0030838622768394  0.5072582382904662   T   T   T
  0.7144748773462466  0.1467883699779239  0.5061373780195716   T   T   T
  0.7142071583553219  0.2899898806401664  0.5064482220926020   T   T   T
  0.7102277535499671  0.4300408561038864  0.5097259785552612   T   T   T
  0.7088050647812811  0.8584574630099618  0.5101294175096575   T   T   T
  0.8560011369802135  0.0020964764859243  0.5067470669805409   T   T   T
  0.8568891714926218  0.1459733364968277  0.5055164424396134   T   T   T
  0.8571923547691046  0.2892485187304337  0.5051568310929965   T   T   T
  0.8572472942279349  0.4322300116721757  0.5060856131112499   T   T   T
  0.8574960014226034  0.5747254218189324  0.5077506142449194   T   T   T
  0.8585002383186834  0.7171459090273833  0.5091585969404796   T   T   T
  0.8547686175125832  0.8581962730310253  0.5082291860891449   T   T   T
  0.0474819034009984  0.0980384251470354  0.5048119020496711   T   T   T
  0.0470533690368586  0.2405240370344321  0.5043724683248932   T   T   T
  0.0483497074568560  0.3845030495831808  0.5044509793506291   T   T   T
  0.0492954709445989  0.5273953386571720  0.5051402956284745   T   T   T
  0.0491148724685927  0.6702463538863330  0.5055354055002580   T   T   T
  0.0482742054923720  0.8130706624476203  0.5055752341986425   T   T   T
  0.0477832960764163  0.9556341207171977  0.5051942432954212   T   T   T
  0.1914011021276331  0.0993136062048176  0.5045156941388758   T   T   T
  0.1913825428978824  0.2417319515804986  0.5045958242532151   T   T   T
  0.1899925407598994  0.3828945197271938  0.5050520122266307   T   T   T
  0.1935865457283760  0.5276484860560124  0.5058268381698128   T   T   T
  0.1924598639696813  0.6703873020413713  0.5061179796841365   T   T   T
  0.1916497331279300  0.8134164827800692  0.5056599716443702   T   T   T
  0.1913610242139338  0.9563703092255211  0.5050098492995735   T   T   T
  0.3343931197189342  0.1001368119091856  0.5052483139910212   T   T   T
  0.3385905941138260  0.2442342521363851  0.5055249945586875   T   T   T
  0.3396332590170517  0.6740483998209313  0.5076036094523936   T   T   T
  0.3346287569664897  0.8135394906538234  0.5066844815384086   T   T   T
  0.3340745944683011  0.9566581547862733  0.5058983931262758   T   T   T
  0.4768164946570370  0.1000356897455241  0.5063138743911069   T   T   T
  0.4745863523971170  0.2446600403524186  0.5067171814917011   T   T   T
  0.4748243257328973  0.8101734808715695  0.5081615063081374   T   T   T
  0.4768369700374357  0.9565737918248651  0.5069077954938253   T   T   T
  0.6190611961870280  0.0993648141395194  0.5065981589188907   T   T   T
  0.6190361051452190  0.2431877764394499  0.5068659758211596   T   T   T
  0.6187929538558582  0.9554599953435189  0.5077014830768996   T   T   T
  0.7617889178802579  0.0988001166063883  0.5061938924598754   T   T   T
  0.7620068847675416  0.2419444498490856  0.5057518634934536   T   T   T
  0.7614051105512527  0.3850643888346922  0.5071480480299956   T   T   T
  0.7608358344268784  0.5297076110686060  0.5119900490870174   T   T   T
  0.7632415012481838  0.6657532250326665  0.5151426734869454   T   T   T
  0.7578072176652180  0.8085359758755466  0.5117387958006393   T   T   T
  0.7605214067905558  0.9546280520360472  0.5079812244285443   T   T   T
  0.9039521865176366  0.0974435374004089  0.5056117812187654   T   T   T
  0.9047809842615815  0.2414442053786998  0.5048906650067423   T   T   T
  0.9050118241240411  0.3847462479458221  0.5051250379919906   T   T   T
  0.9054855296166358  0.5274571970169153  0.5060688084001888   T   T   T
  0.9060225124325494  0.6698111039152563  0.5074521287212729   T   T   T
  0.9043144798591740  0.8122260661409634  0.5074144000026011   T   T   T
  0.9033254556287714  0.9539151580445888  0.5065666298299565   T   T   T
  0.7158014793564575  0.7145258068469930  0.5175437642536820   T   T   T
  0.3323511365839669  0.5230321360468176  0.5078829707749816   T   T   T
  0.6274697218992252  0.6658108566866640  0.5258316355536750   T   T   T
  0.4216852901657585  0.5626526173123896  0.5102559032762158   T   T   T
  0.4286496026271780  0.2890429798248209  0.5067757688784197   T   T   T
  0.4295134546956925  0.7200224126934286  0.5083494194753523   T   T   T
  0.7172489097041672  0.5750933075055844  0.5186130607837275   T   T   T
  0.3321869124170206  0.3830005832899446  0.5063875623037326   T   T   T
  0.6200910019113715  0.3846750103680696  0.5093546751101954   T   T   T
  0.6189019620513215  0.8146653947068824  0.5101074939485375   T   T   T
  0.4889960631126236  0.4946162970448419  0.4499549847801618   T   T   T
  0.5413066531909225  0.4451382581892588  0.4662911627351519   T   T   T
  0.5411903583968370  0.4921774160172850  0.4302240609999970   T   T   F
 
  0.00000000E+00  0.00000000E+00  0.00000000E+00
  0.00000000E+00  0.00000000E+00  0.00000000E+00
  0.00000000E+00  0.00000000E+00  0.00000000E+00
  0.00000000E+00  0.00000000E+00  0.00000000E+00
  0.00000000E+00  0.00000000E+00  0.00000000E+00
  0.00000000E+00  0.00000000E+00  0.00000000E+00
  0.00000000E+00  0.00000000E+00  0.00000000E+00
  0.00000000E+00  0.00000000E+00  0.00000000E+00
  0.00000000E+00  0.00000000E+00  0.00000000E+00
  0.00000000E+00  0.00000000E+00  0.00000000E+00
  0.00000000E+00  0.00000000E+00  0.00000000E+00
  0.00000000E+00  0.00000000E+00  0.00000000E+00
  0.00000000E+00  0.00000000E+00  0.00000000E+00
  0.00000000E+00  0.00000000E+00  0.00000000E+00
  0.00000000E+00  0.00000000E+00  0.00000000E+00
  0.00000000E+00  0.00000000E+00  0.00000000E+00
  0.00000000E+00  0.00000000E+00  0.00000000E+00
  0.00000000E+00  0.00000000E+00  0.00000000E+00
  0.00000000E+00  0.00000000E+00  0.00000000E+00
  0.00000000E+00  0.00000000E+00  0.00000000E+00
  0.00000000E+00  0.00000000E+00  0.00000000E+00
  0.00000000E+00  0.00000000E+00  0.00000000E+00
  0.00000000E+00  0.00000000E+00  0.00000000E+00
  0.00000000E+00  0.00000000E+00  0.00000000E+00
  0.00000000E+00  0.00000000E+00  0.00000000E+00
  0.00000000E+00  0.00000000E+00  0.00000000E+00
  0.00000000E+00  0.00000000E+00  0.00000000E+00
  0.00000000E+00  0.00000000E+00  0.00000000E+00
  0.00000000E+00  0.00000000E+00  0.00000000E+00
  0.00000000E+00  0.00000000E+00  0.00000000E+00
  0.00000000E+00  0.00000000E+00  0.00000000E+00
  0.00000000E+00  0.00000000E+00  0.00000000E+00
  0.00000000E+00  0.00000000E+00  0.00000000E+00
  0.00000000E+00  0.00000000E+00  0.00000000E+00
  0.00000000E+00  0.00000000E+00  0.00000000E+00
  0.00000000E+00  0.00000000E+00  0.00000000E+00
  0.00000000E+00  0.00000000E+00  0.00000000E+00
  0.00000000E+00  0.00000000E+00  0.00000000E+00
  0.00000000E+00  0.00000000E+00  0.00000000E+00
  0.00000000E+00  0.00000000E+00  0.00000000E+00
  0.00000000E+00  0.00000000E+00  0.00000000E+00
  0.00000000E+00  0.00000000E+00  0.00000000E+00
  0.00000000E+00  0.00000000E+00  0.00000000E+00
  0.00000000E+00  0.00000000E+00  0.00000000E+00
  0.00000000E+00  0.00000000E+00  0.00000000E+00
  0.00000000E+00  0.00000000E+00  0.00000000E+00
  0.00000000E+00  0.00000000E+00  0.00000000E+00
  0.00000000E+00  0.00000000E+00  0.00000000E+00
  0.00000000E+00  0.00000000E+00  0.00000000E+00
  0.00000000E+00  0.00000000E+00  0.00000000E+00
  0.00000000E+00  0.00000000E+00  0.00000000E+00
  0.00000000E+00  0.00000000E+00  0.00000000E+00
  0.00000000E+00  0.00000000E+00  0.00000000E+00
  0.00000000E+00  0.00000000E+00  0.00000000E+00
  0.00000000E+00  0.00000000E+00  0.00000000E+00
  0.00000000E+00  0.00000000E+00  0.00000000E+00
  0.00000000E+00  0.00000000E+00  0.00000000E+00
  0.00000000E+00  0.00000000E+00  0.00000000E+00
  0.00000000E+00  0.00000000E+00  0.00000000E+00
  0.00000000E+00  0.00000000E+00  0.00000000E+00
  0.00000000E+00  0.00000000E+00  0.00000000E+00
  0.00000000E+00  0.00000000E+00  0.00000000E+00
  0.00000000E+00  0.00000000E+00  0.00000000E+00
  0.00000000E+00  0.00000000E+00  0.00000000E+00
  0.00000000E+00  0.00000000E+00  0.00000000E+00
  0.00000000E+00  0.00000000E+00  0.00000000E+00
  0.00000000E+00  0.00000000E+00  0.00000000E+00
  0.00000000E+00  0.00000000E+00  0.00000000E+00
  0.00000000E+00  0.00000000E+00  0.00000000E+00
  0.00000000E+00  0.00000000E+00  0.00000000E+00
  0.00000000E+00  0.00000000E+00  0.00000000E+00
  0.00000000E+00  0.00000000E+00  0.00000000E+00
  0.00000000E+00  0.00000000E+00  0.00000000E+00
  0.00000000E+00  0.00000000E+00  0.00000000E+00
  0.00000000E+00  0.00000000E+00  0.00000000E+00
  0.00000000E+00  0.00000000E+00  0.00000000E+00
  0.00000000E+00  0.00000000E+00  0.00000000E+00
  0.00000000E+00  0.00000000E+00  0.00000000E+00
  0.00000000E+00  0.00000000E+00  0.00000000E+00
  0.00000000E+00  0.00000000E+00  0.00000000E+00
  0.00000000E+00  0.00000000E+00  0.00000000E+00
  0.00000000E+00  0.00000000E+00  0.00000000E+00
  0.00000000E+00  0.00000000E+00  0.00000000E+00
  0.00000000E+00  0.00000000E+00  0.00000000E+00
  0.00000000E+00  0.00000000E+00  0.00000000E+00
  0.00000000E+00  0.00000000E+00  0.00000000E+00
  0.00000000E+00  0.00000000E+00  0.00000000E+00
  0.00000000E+00  0.00000000E+00  0.00000000E+00
  0.00000000E+00  0.00000000E+00  0.00000000E+00
  0.00000000E+00  0.00000000E+00  0.00000000E+00
  0.00000000E+00  0.00000000E+00  0.00000000E+00
  0.00000000E+00  0.00000000E+00  0.00000000E+00
  0.00000000E+00  0.00000000E+00  0.00000000E+00
