C    F    N    H    O                   
    1.000000000000000     
    17.2710380553999983    0.0000000000000000    0.0000000000000000
    -8.6355190276999991   14.9571577057000002    0.0000000000000000
     0.0000000000000000    0.0000000000000000   15.0000000000000000
   C    F    N    H    O 
    82     2     6     2     1
Selective dynamics
Direct
  0.9991618954939104  0.0022911847052188  0.5055565366247410   T   T   T
  0.9993943931911304  0.1452987408810662  0.5050079279918251   T   T   T
  1.0001923185574864  0.2889307046518382  0.5045046778582740   T   T   T
  0.0006747449603649  0.4319892972880208  0.5048798495521899   T   T   T
  0.0011035770507488  0.5747930833236782  0.5056706315475804   T   T   T
  0.0014607682424277  0.7177354073359299  0.5062134367626272   T   T   T
  1.0000380982764756  0.8603401958965173  0.5060604530636648   T   T   T
  0.1434603163302000  0.0039694834661927  0.5049070476760043   T   T   T
  0.1431774151752985  0.1463010715286018  0.5043969982901529   T   T   T
  0.1425203563429382  0.2879784655237945  0.5043851080155176   T   T   T
  0.1441063483916071  0.4320901216103050  0.5050881040450996   T   T   T
  0.1450753854679302  0.5747755357321630  0.5059107666855026   T   T   T
  0.1445188514560015  0.7177397135257416  0.5060763052313635   T   T   T
  0.1436789122728952  0.8609078866459668  0.5056547083856524   T   T   T
  0.2864515465661844  0.0041859803417700  0.5053679846263229   T   T   T
  0.2871492684800479  0.1479484259019152  0.5045641865693131   T   T   T
  0.2881671481825283  0.2934756185520066  0.5048367413442740   T   T   T
  0.2853284036543347  0.4270425281304027  0.5060566104134774   T   T   T
  0.2905560802501891  0.5750677397544928  0.5073515153388657   T   T   T
  0.2878512620642760  0.7183835739010380  0.5071512525893952   T   T   T
  0.2866702368255237  0.8612876196343361  0.5063492215270311   T   T   T
  0.4294079064686472  0.0045183081005825  0.5064817330304427   T   T   T
  0.4294820530644375  0.1483971917126015  0.5057785121341126   T   T   T
  0.4296443285077073  0.8608643218440490  0.5075192250506284   T   T   T
  0.5716227429697525  0.0039219850590495  0.5073383283416515   T   T   T
  0.5716528483577749  0.1474142584239186  0.5065172173125236   T   T   T
  0.5739694084449846  0.2942709463367311  0.5072009563639469   T   T   T
  0.5736304145505637  0.8595228535166581  0.5090435481361339   T   T   T
  0.7137955256771349  0.0030264811091118  0.5074656608735135   T   T   T
  0.7144002587747740  0.1467167287077027  0.5062209452872234   T   T   T
  0.7141374313662675  0.2899183104863868  0.5063627567722032   T   T   T
  0.7101757206696317  0.4299720315658667  0.5094594421243253   T   T   T
  0.7087474539415561  0.8584005104261965  0.5104193258348475   T   T   T
  0.8559297637150498  0.0020299255138536  0.5069565881182257   T   T   T
  0.8568197096808998  0.1458985353497361  0.5056298280717756   T   T   T
  0.8571203002864145  0.2891713746158855  0.5052125189398602   T   T   T
  0.8571908678959251  0.4321530264959207  0.5061462161639305   T   T   T
  0.8574552277516346  0.5746469324349348  0.5077965087750259   T   T   T
  0.8584365772127294  0.7170719041260395  0.5092974074855489   T   T   T
  0.8547142675158348  0.8581449504939387  0.5084766297878253   T   T   T
  0.0474225170866675  0.0979619322425652  0.5048757932771699   T   T   T
  0.0469907478609225  0.2404529459367737  0.5044075105972682   T   T   T
  0.0482951666585928  0.3844350015067285  0.5045814562535389   T   T   T
  0.0492494463766493  0.5273192747040260  0.5053668911706642   T   T   T
  0.0490654512579564  0.6701605478458198  0.5058760473947591   T   T   T
  0.0482090328185813  0.8129794928686271  0.5059070494155732   T   T   T
  0.0477261588951339  0.9555501558560549  0.5054193220552787   T   T   T
  0.1913288285951052  0.0992371457111983  0.5044385438555844   T   T   T
  0.1913244243530245  0.2416736987726595  0.5043890415304758   T   T   T
  0.1899413388883176  0.3828294305661720  0.5049968170926744   T   T   T
  0.1935403067476860  0.5275828953723486  0.5060057444935731   T   T   T
  0.1924013803935087  0.6703232569275264  0.5064164319241108   T   T   T
  0.1915855133132822  0.8133428124780256  0.5060578127476469   T   T   T
  0.1912876553977418  0.9562878197546423  0.5052384585063311   T   T   T
  0.3343134828901772  0.1000557948881552  0.5051228053708587   T   T   T
  0.3385192929549132  0.2441662814554466  0.5049387077597132   T   T   T
  0.3395563124181019  0.6739776515012526  0.5079207483569185   T   T   T
  0.3345692991005293  0.8134775933736323  0.5069793486757335   T   T   T
  0.3340080284776011  0.9565886966099149  0.5060479939050699   T   T   T
  0.4767403651227656  0.0999643401522694  0.5063029565142102   T   T   T
  0.4745161888830305  0.2446000853525301  0.5062167130988314   T   T   T
  0.4747454694034228  0.8101034741315407  0.5084984013597601   T   T   T
  0.4767670751196074  0.9565043813199523  0.5071508956491763   T   T   T
  0.6189887984638024  0.0992965086024297  0.5067266247452864   T   T   T
  0.6189679707705387  0.2431226399000437  0.5066766870423983   T   T   T
  0.6187219701149376  0.9553864303186992  0.5079888699047300   T   T   T
  0.7617166396850693  0.0987421823807393  0.5063220579964308   T   T   T
  0.7619337175611545  0.2418721646223700  0.5057677251248258   T   T   T
  0.7613512137690852  0.3849984553980673  0.5070741665502402   T   T   T
  0.7607977421267780  0.5296375070178388  0.5118494727174391   T   T   T
  0.7631804685901407  0.6656793980347283  0.5151361307222537   T   T   T
  0.7577606412055174  0.8084910283964075  0.5119555454200541   T   T   T
  0.7604501165723455  0.9545641341760887  0.5082263928942394   T   T   T
  0.9038878338323385  0.0973786363587100  0.5057573504105803   T   T   T
  0.9047139493678332  0.2413743047471049  0.5049820614310866   T   T   T
  0.9049512194370184  0.3846674777419933  0.5052340854176310   T   T   T
  0.9054412026724590  0.5273756983801158  0.5061978896553674   T   T   T
  0.9059627184017844  0.6697307683346791  0.5076157942900681   T   T   T
  0.9042451907785768  0.8121509994410060  0.5076270489479846   T   T   T
  0.9032699245142554  0.9538534064404692  0.5068092354080850   T   T   T
  0.7157293426291227  0.7144605168832194  0.5176044446740107   T   T   T
  0.3323357099771636  0.5229750296491565  0.5078816646671012   T   T   T
  0.6274397156121212  0.6657862283933278  0.5258461098919944   T   T   T
  0.4216258054322709  0.5624997389714204  0.5103197874622950   T   T   T
  0.4285798863489582  0.2889848374655447  0.5060307130512266   T   T   T
  0.4294395249978120  0.7199538047722616  0.5087202637759923   T   T   T
  0.7172194541460204  0.5750225508340978  0.5184545958338584   T   T   T
  0.3321368761442987  0.3829379398830584  0.5056749419333136   T   T   T
  0.6200387151189287  0.3846196713879493  0.5088068647307712   T   T   T
  0.6188379090111000  0.8145973297825378  0.5104684265105582   T   T   T
  0.4877538362346742  0.4918288931761324  0.4468177526179166   T   T   T
  0.5433280678168051  0.4459864697048470  0.4648752403292462   T   T   T
  0.5428756583505620  0.4936393366104500  0.4302240609999970   T   T   F
 
  0.00000000E+00  0.00000000E+00  0.00000000E+00
  0.00000000E+00  0.00000000E+00  0.00000000E+00
  0.00000000E+00  0.00000000E+00  0.00000000E+00
  0.00000000E+00  0.00000000E+00  0.00000000E+00
  0.00000000E+00  0.00000000E+00  0.00000000E+00
  0.00000000E+00  0.00000000E+00  0.00000000E+00
  0.00000000E+00  0.00000000E+00  0.00000000E+00
  0.00000000E+00  0.00000000E+00  0.00000000E+00
  0.00000000E+00  0.00000000E+00  0.00000000E+00
  0.00000000E+00  0.00000000E+00  0.00000000E+00
  0.00000000E+00  0.00000000E+00  0.00000000E+00
  0.00000000E+00  0.00000000E+00  0.00000000E+00
  0.00000000E+00  0.00000000E+00  0.00000000E+00
  0.00000000E+00  0.00000000E+00  0.00000000E+00
  0.00000000E+00  0.00000000E+00  0.00000000E+00
  0.00000000E+00  0.00000000E+00  0.00000000E+00
  0.00000000E+00  0.00000000E+00  0.00000000E+00
  0.00000000E+00  0.00000000E+00  0.00000000E+00
  0.00000000E+00  0.00000000E+00  0.00000000E+00
  0.00000000E+00  0.00000000E+00  0.00000000E+00
  0.00000000E+00  0.00000000E+00  0.00000000E+00
  0.00000000E+00  0.00000000E+00  0.00000000E+00
  0.00000000E+00  0.00000000E+00  0.00000000E+00
  0.00000000E+00  0.00000000E+00  0.00000000E+00
  0.00000000E+00  0.00000000E+00  0.00000000E+00
  0.00000000E+00  0.00000000E+00  0.00000000E+00
  0.00000000E+00  0.00000000E+00  0.00000000E+00
  0.00000000E+00  0.00000000E+00  0.00000000E+00
  0.00000000E+00  0.00000000E+00  0.00000000E+00
  0.00000000E+00  0.00000000E+00  0.00000000E+00
  0.00000000E+00  0.00000000E+00  0.00000000E+00
  0.00000000E+00  0.00000000E+00  0.00000000E+00
  0.00000000E+00  0.00000000E+00  0.00000000E+00
  0.00000000E+00  0.00000000E+00  0.00000000E+00
  0.00000000E+00  0.00000000E+00  0.00000000E+00
  0.00000000E+00  0.00000000E+00  0.00000000E+00
  0.00000000E+00  0.00000000E+00  0.00000000E+00
  0.00000000E+00  0.00000000E+00  0.00000000E+00
  0.00000000E+00  0.00000000E+00  0.00000000E+00
  0.00000000E+00  0.00000000E+00  0.00000000E+00
  0.00000000E+00  0.00000000E+00  0.00000000E+00
  0.00000000E+00  0.00000000E+00  0.00000000E+00
  0.00000000E+00  0.00000000E+00  0.00000000E+00
  0.00000000E+00  0.00000000E+00  0.00000000E+00
  0.00000000E+00  0.00000000E+00  0.00000000E+00
  0.00000000E+00  0.00000000E+00  0.00000000E+00
  0.00000000E+00  0.00000000E+00  0.00000000E+00
  0.00000000E+00  0.00000000E+00  0.00000000E+00
  0.00000000E+00  0.00000000E+00  0.00000000E+00
  0.00000000E+00  0.00000000E+00  0.00000000E+00
  0.00000000E+00  0.00000000E+00  0.00000000E+00
  0.00000000E+00  0.00000000E+00  0.00000000E+00
  0.00000000E+00  0.00000000E+00  0.00000000E+00
  0.00000000E+00  0.00000000E+00  0.00000000E+00
  0.00000000E+00  0.00000000E+00  0.00000000E+00
  0.00000000E+00  0.00000000E+00  0.00000000E+00
  0.00000000E+00  0.00000000E+00  0.00000000E+00
  0.00000000E+00  0.00000000E+00  0.00000000E+00
  0.00000000E+00  0.00000000E+00  0.00000000E+00
  0.00000000E+00  0.00000000E+00  0.00000000E+00
  0.00000000E+00  0.00000000E+00  0.00000000E+00
  0.00000000E+00  0.00000000E+00  0.00000000E+00
  0.00000000E+00  0.00000000E+00  0.00000000E+00
  0.00000000E+00  0.00000000E+00  0.00000000E+00
  0.00000000E+00  0.00000000E+00  0.00000000E+00
  0.00000000E+00  0.00000000E+00  0.00000000E+00
  0.00000000E+00  0.00000000E+00  0.00000000E+00
  0.00000000E+00  0.00000000E+00  0.00000000E+00
  0.00000000E+00  0.00000000E+00  0.00000000E+00
  0.00000000E+00  0.00000000E+00  0.00000000E+00
  0.00000000E+00  0.00000000E+00  0.00000000E+00
  0.00000000E+00  0.00000000E+00  0.00000000E+00
  0.00000000E+00  0.00000000E+00  0.00000000E+00
  0.00000000E+00  0.00000000E+00  0.00000000E+00
  0.00000000E+00  0.00000000E+00  0.00000000E+00
  0.00000000E+00  0.00000000E+00  0.00000000E+00
  0.00000000E+00  0.00000000E+00  0.00000000E+00
  0.00000000E+00  0.00000000E+00  0.00000000E+00
  0.00000000E+00  0.00000000E+00  0.00000000E+00
  0.00000000E+00  0.00000000E+00  0.00000000E+00
  0.00000000E+00  0.00000000E+00  0.00000000E+00
  0.00000000E+00  0.00000000E+00  0.00000000E+00
  0.00000000E+00  0.00000000E+00  0.00000000E+00
  0.00000000E+00  0.00000000E+00  0.00000000E+00
  0.00000000E+00  0.00000000E+00  0.00000000E+00
  0.00000000E+00  0.00000000E+00  0.00000000E+00
  0.00000000E+00  0.00000000E+00  0.00000000E+00
  0.00000000E+00  0.00000000E+00  0.00000000E+00
  0.00000000E+00  0.00000000E+00  0.00000000E+00
  0.00000000E+00  0.00000000E+00  0.00000000E+00
  0.00000000E+00  0.00000000E+00  0.00000000E+00
  0.00000000E+00  0.00000000E+00  0.00000000E+00
  0.00000000E+00  0.00000000E+00  0.00000000E+00
