C4                                      
    1.000000000000000     
    17.2710380553999983    0.0000000000000000    0.0000000000000000
    -8.6355190276999991   14.9571577057000002    0.0000000000000000
     0.0000000000000000    0.0000000000000000   15.0000000000000000
   C    H    F 
    88     4     4
Direct
  0.0002749271201969  0.0000560540465019  0.2499975826832607
 -0.0006832103092698  0.1424688245454452  0.2500010320718754
 -0.0012726973917730  0.2851346021466084  0.2499994855192633
 -0.0009276622265555  0.4283118022369317  0.2500021973186665
  0.0002361281053710  0.5715771963828274  0.2499998379883190
  0.0018808284822436  0.7149858414021284  0.2499988413493076
  0.0018235466076427  0.8582180150357906  0.2500023793775155
  0.1431974128266555 -0.0000497242301869  0.2499948550751278
  0.1423882745920485  0.1426220551278746  0.2499997973932432
  0.1404521134998594  0.2839912667996135  0.2500006039132653
  0.1405305019482346  0.4275881829346473  0.2499974847146391
  0.1423621982506721  0.5709073344511297  0.2499960995152753
  0.1434763427715627  0.7142556479585240  0.2499982509539607
  0.1437048742831271  0.8572743515649504  0.2499990991640431
  0.2856310873851728 -0.0006966477696068  0.2499973930307391
  0.2845348298200613  0.1412197850670070  0.2499986884982014
  0.2851034662740122  0.2854953826682686  0.2499978456120056
  0.2801810815582837  0.4258598610860975  0.2499964832839331
  0.2848406729158043  0.5692254720893002  0.2499973150370435
  0.2853596890287837  0.7142012325496966  0.2499960198628512
  0.2858289519446103  0.8570264909624439  0.2500000829579488
  0.4286085270540528 -0.0002818410916911  0.2500004510190090
  0.4280411538095316  0.1415892917891963  0.2499993980412495
  0.4248205441322890  0.2797546083881109  0.2499925759829111
  0.4253394036146045  0.7172125384997829  0.2500044241577047
  0.4284605160172633  0.8573512315992537  0.2499987377699558
  0.5715466098547332  0.0006679956496734  0.2499992907918235
  0.5712602514433334  0.1426884016227758  0.2499877019680188
  0.5710548556365207  0.2848020519387122  0.2499973732219617
  0.5730351313580798  0.8588895380662246  0.2500018972197922
  0.7147033927946420  0.0008638510598730  0.2499999440085136
  0.7142605832732529  0.1432687170368778  0.2499931741594288
  0.7141771407358125  0.2858885936297984  0.2499859081825974
  0.7149468877064243  0.4290120442594024  0.2499963932666782
  0.7198992888164167  0.5760420191677310  0.2499955404928792
  0.7212594027755923  0.7170364538939916  0.2500000369244815
  0.7152140218312830  0.8594087523802576  0.2500010951421869
  0.8577343173960125  0.0007882919790943  0.2499996897308935
  0.8567734109896654  0.1430071822050862  0.2499981953401741
  0.8565290593010730  0.2856788711571583  0.2500005108759460
  0.8570998536706744  0.4287519981136856  0.2499968763124605
  0.8584185020093693  0.5724427145833293  0.2499997471463297
  0.8615331919267404  0.7168417602435342  0.2499984016956752
  0.8583197825901958  0.8576393645219170  0.2499986954634028
  0.0473720273082364  0.0952072525060082  0.2499997918403305
  0.0457437736093219  0.2369709272547471  0.2499992792064169
  0.0456667900846350  0.3801747318210407  0.2500009293786737
  0.0473189927462747  0.5235898996616222  0.2499994127433534
  0.0484989670940764  0.6668561856509352  0.2499984367758475
  0.0488903055157896  0.8100589138562143  0.2500004349985675
  0.0483555383026352  0.9527745884364048  0.2499965371029494
  0.1898121241007580  0.0944389904850713  0.2499982356327642
  0.1891183100833979  0.2375767498198496  0.2500023834206115
  0.1859594743558825  0.3783673408733597  0.2499986147982636
  0.1890568525099192  0.5227173238086441  0.2499959744298901
  0.1903110791274253  0.6664231569631205  0.2499962508642566
  0.1910032061573409  0.8095314172732682  0.2499994605385246
  0.1908386521907635  0.9521817459670723  0.2499964169433540
  0.3329177876803597  0.0944193274860264  0.2499978269127549
  0.3323810526729402  0.2359007384779676  0.2499964257259631
  0.3261122657012959  0.3780769894376969  0.2499917365342093
  0.3275732966996236  0.5190904652137880  0.2499966843956709
  0.3325457286070418  0.6662328913074872  0.2499990099925812
  0.3333557883582084  0.8093755029445653  0.2500001478623154
  0.3332940012006876  0.9519646777569932  0.2499998451430955
  0.4761042308349756  0.0946162395908453  0.2499964928604298
  0.4746332970864642  0.2364004089538026  0.2500005950495613
  0.4765530206017015  0.8104560014236476  0.2499997365564981
  0.4763543802741899  0.9526230848290507  0.2500002004604042
  0.6189780575700360  0.0955703790596266  0.2499934494565616
  0.6190997463611455  0.2378753868466706  0.2499798884297632
  0.6222042169629521  0.3780427876940020  0.2500277279405877
  0.6227760028631367  0.8155211942944821  0.2500016441168049
  0.6196235028576218  0.9537323890515786  0.2500012788311736
  0.7619255946062380  0.0959103634616359  0.2499962806998713
  0.7616793903580014  0.2382181043926958  0.2499946066783857
  0.7620963084022611  0.3810388961255045  0.2499834727197034
  0.7626838777430057  0.5259794800782426  0.2500018655801917
  0.7672438663113467  0.6692935057062798  0.2499969530438695
  0.7623244507555202  0.8096874614825361  0.2500011574381762
  0.7630591542028322  0.9540800854541142  0.2500005699246279
  0.9044810433080093  0.0952660466750202  0.2499988465378138
  0.9038825290720963  0.2379401557532528  0.2499996107352756
  0.9040505007624356  0.3809694238352787  0.2500022830561527
  0.9051704458290689  0.5242769128997933  0.2500000391997214
  0.9069763181536600  0.6676258603981979  0.2499976339146236
  0.9070539032139212  0.8112392526589155  0.2500001562362613
  0.9051856197757584  0.9526283386202343  0.2499986662104688
  0.4588026051653245  0.3507666814048094  0.2499884105441333
  0.3989924793208572  0.5494455589189174  0.2499994697241051
  0.6484860528835990  0.5456298190074130  0.2499932371930722
  0.5887896132132647  0.7445004616445334  0.2500006714322016
  0.4170992342492501  0.4313244272459153  0.2499787505182220
  0.6302913196734046  0.6637579819969924  0.2499987967775148
  0.5773131741253730  0.4239292087566317  0.2501621774374288
  0.4701464347834169  0.6712151129469516  0.2500240612214401
 
  0.00000000E+00  0.00000000E+00  0.00000000E+00
  0.00000000E+00  0.00000000E+00  0.00000000E+00
  0.00000000E+00  0.00000000E+00  0.00000000E+00
  0.00000000E+00  0.00000000E+00  0.00000000E+00
  0.00000000E+00  0.00000000E+00  0.00000000E+00
  0.00000000E+00  0.00000000E+00  0.00000000E+00
  0.00000000E+00  0.00000000E+00  0.00000000E+00
  0.00000000E+00  0.00000000E+00  0.00000000E+00
  0.00000000E+00  0.00000000E+00  0.00000000E+00
  0.00000000E+00  0.00000000E+00  0.00000000E+00
  0.00000000E+00  0.00000000E+00  0.00000000E+00
  0.00000000E+00  0.00000000E+00  0.00000000E+00
  0.00000000E+00  0.00000000E+00  0.00000000E+00
  0.00000000E+00  0.00000000E+00  0.00000000E+00
  0.00000000E+00  0.00000000E+00  0.00000000E+00
  0.00000000E+00  0.00000000E+00  0.00000000E+00
  0.00000000E+00  0.00000000E+00  0.00000000E+00
  0.00000000E+00  0.00000000E+00  0.00000000E+00
  0.00000000E+00  0.00000000E+00  0.00000000E+00
  0.00000000E+00  0.00000000E+00  0.00000000E+00
  0.00000000E+00  0.00000000E+00  0.00000000E+00
  0.00000000E+00  0.00000000E+00  0.00000000E+00
  0.00000000E+00  0.00000000E+00  0.00000000E+00
  0.00000000E+00  0.00000000E+00  0.00000000E+00
  0.00000000E+00  0.00000000E+00  0.00000000E+00
  0.00000000E+00  0.00000000E+00  0.00000000E+00
  0.00000000E+00  0.00000000E+00  0.00000000E+00
  0.00000000E+00  0.00000000E+00  0.00000000E+00
  0.00000000E+00  0.00000000E+00  0.00000000E+00
  0.00000000E+00  0.00000000E+00  0.00000000E+00
  0.00000000E+00  0.00000000E+00  0.00000000E+00
  0.00000000E+00  0.00000000E+00  0.00000000E+00
  0.00000000E+00  0.00000000E+00  0.00000000E+00
  0.00000000E+00  0.00000000E+00  0.00000000E+00
  0.00000000E+00  0.00000000E+00  0.00000000E+00
  0.00000000E+00  0.00000000E+00  0.00000000E+00
  0.00000000E+00  0.00000000E+00  0.00000000E+00
  0.00000000E+00  0.00000000E+00  0.00000000E+00
  0.00000000E+00  0.00000000E+00  0.00000000E+00
  0.00000000E+00  0.00000000E+00  0.00000000E+00
  0.00000000E+00  0.00000000E+00  0.00000000E+00
  0.00000000E+00  0.00000000E+00  0.00000000E+00
  0.00000000E+00  0.00000000E+00  0.00000000E+00
  0.00000000E+00  0.00000000E+00  0.00000000E+00
  0.00000000E+00  0.00000000E+00  0.00000000E+00
  0.00000000E+00  0.00000000E+00  0.00000000E+00
  0.00000000E+00  0.00000000E+00  0.00000000E+00
  0.00000000E+00  0.00000000E+00  0.00000000E+00
  0.00000000E+00  0.00000000E+00  0.00000000E+00
  0.00000000E+00  0.00000000E+00  0.00000000E+00
  0.00000000E+00  0.00000000E+00  0.00000000E+00
  0.00000000E+00  0.00000000E+00  0.00000000E+00
  0.00000000E+00  0.00000000E+00  0.00000000E+00
  0.00000000E+00  0.00000000E+00  0.00000000E+00
  0.00000000E+00  0.00000000E+00  0.00000000E+00
  0.00000000E+00  0.00000000E+00  0.00000000E+00
  0.00000000E+00  0.00000000E+00  0.00000000E+00
  0.00000000E+00  0.00000000E+00  0.00000000E+00
  0.00000000E+00  0.00000000E+00  0.00000000E+00
  0.00000000E+00  0.00000000E+00  0.00000000E+00
  0.00000000E+00  0.00000000E+00  0.00000000E+00
  0.00000000E+00  0.00000000E+00  0.00000000E+00
  0.00000000E+00  0.00000000E+00  0.00000000E+00
  0.00000000E+00  0.00000000E+00  0.00000000E+00
  0.00000000E+00  0.00000000E+00  0.00000000E+00
  0.00000000E+00  0.00000000E+00  0.00000000E+00
  0.00000000E+00  0.00000000E+00  0.00000000E+00
  0.00000000E+00  0.00000000E+00  0.00000000E+00
  0.00000000E+00  0.00000000E+00  0.00000000E+00
  0.00000000E+00  0.00000000E+00  0.00000000E+00
  0.00000000E+00  0.00000000E+00  0.00000000E+00
  0.00000000E+00  0.00000000E+00  0.00000000E+00
  0.00000000E+00  0.00000000E+00  0.00000000E+00
  0.00000000E+00  0.00000000E+00  0.00000000E+00
  0.00000000E+00  0.00000000E+00  0.00000000E+00
  0.00000000E+00  0.00000000E+00  0.00000000E+00
  0.00000000E+00  0.00000000E+00  0.00000000E+00
  0.00000000E+00  0.00000000E+00  0.00000000E+00
  0.00000000E+00  0.00000000E+00  0.00000000E+00
  0.00000000E+00  0.00000000E+00  0.00000000E+00
  0.00000000E+00  0.00000000E+00  0.00000000E+00
  0.00000000E+00  0.00000000E+00  0.00000000E+00
  0.00000000E+00  0.00000000E+00  0.00000000E+00
  0.00000000E+00  0.00000000E+00  0.00000000E+00
  0.00000000E+00  0.00000000E+00  0.00000000E+00
  0.00000000E+00  0.00000000E+00  0.00000000E+00
  0.00000000E+00  0.00000000E+00  0.00000000E+00
  0.00000000E+00  0.00000000E+00  0.00000000E+00
  0.00000000E+00  0.00000000E+00  0.00000000E+00
  0.00000000E+00  0.00000000E+00  0.00000000E+00
  0.00000000E+00  0.00000000E+00  0.00000000E+00
  0.00000000E+00  0.00000000E+00  0.00000000E+00
  0.00000000E+00  0.00000000E+00  0.00000000E+00
  0.00000000E+00  0.00000000E+00  0.00000000E+00
  0.00000000E+00  0.00000000E+00  0.00000000E+00
  0.00000000E+00  0.00000000E+00  0.00000000E+00
