C    F    N    H    O                   
    1.000000000000000     
    17.2710380553999983    0.0000000000000000    0.0000000000000000
    -8.6355190276999991   14.9571577057000002    0.0000000000000000
     0.0000000000000000    0.0000000000000000   15.0000000000000000
   C    F    N    H    O 
    86     6     2     2     1
Selective dynamics
Direct
  0.9981403876143823  0.9988531176830396  0.5037090545004319   T   T   T
  0.9974013251021846  0.1412431785996575  0.5054287272308776   T   T   T
  0.9975380246091452  0.2843829424833561  0.5048991721889950   T   T   T
  0.9980311067374084  0.4275206660104703  0.5044924048697907   T   T   T
  0.9983333708317974  0.5705861850356027  0.5008934885533127   T   T   T
  0.9994071179799840  0.7138802763735800  0.4992120444701585   T   T   T
  0.9997361073932346  0.8570908601114963  0.5005731547900037   T   T   T
  0.1414811404395240  0.9995523767349785  0.4929603797274940   T   T   T
  0.1406101034052878  0.1418485803631932  0.4983171247270133   T   T   T
  0.1398997574320729  0.2843534357620607  0.4973731114474597   T   T   T
  0.1407888800643869  0.4279545034887304  0.4964647952353110   T   T   T
  0.1412057522137096  0.5705421867289108  0.4965094519444590   T   T   T
  0.1413746767800595  0.7134610443289647  0.4931924524588404   T   T   T
  0.1416435548936097  0.8565785320519631  0.4917979881428178   T   T   T
  0.2841436108693509  0.9991073440232265  0.4909062658361059   T   T   T
  0.2838784824316887  0.1415505484568808  0.4919020823964482   T   T   T
  0.2831100750887694  0.2848990157141935  0.4919206662128891   T   T   T
  0.2815645801867921  0.4267149893978881  0.4778807151172344   T   T   T
  0.2853015811041597  0.5718918635452941  0.4869037172863802   T   T   T
  0.2838622313948410  0.7142203173167807  0.4930211809343865   T   T   T
  0.2838969841527980  0.8567456224452268  0.4914235620700061   T   T   T
  0.4271220347203915  0.9990428887073711  0.4949664106317552   T   T   T
  0.4268032689382951  0.1416398765213223  0.4961667994757101   T   T   T
  0.4219463979324991  0.2771149018352742  0.5203751881982960   T   T   T
  0.4260106907240622  0.8558476567814636  0.4989044512948753   T   T   T
  0.5692522117595556  0.9977885329105505  0.5047372975402195   T   T   T
  0.5696407017030568  0.1411673165816174  0.5055454672472603   T   T   T
  0.5702283501297887  0.2845916840735896  0.5061760163169162   T   T   T
  0.5673060118969976  0.8530490315103396  0.5151844236522972   T   T   T
  0.7113509597997846  0.9964893703870655  0.5132086630376292   T   T   T
  0.7122620533832020  0.1407947152979442  0.5097628751233272   T   T   T
  0.7126532834506121  0.2845067591243221  0.5119749390580575   T   T   T
  0.7131688349545016  0.4283960345096735  0.5135135980362716   T   T   T
  0.7215925933640629  0.5765883717616465  0.5438531072833159   T   T   T
  0.7117008665061217  0.8530364027974930  0.5269001479025539   T   T   T
  0.8546284614898395  0.9977474714367380  0.5130108890420331   T   T   T
  0.8544737991995079  0.1407628444332056  0.5099293355014332   T   T   T
  0.8550231631403697  0.2842229001243665  0.5101500608812035   T   T   T
  0.8556443549247483  0.4277116853678886  0.5118704633370055   T   T   T
  0.8563997686490491  0.5717245485740737  0.5096689620499143   T   T   T
  0.8588755284981842  0.7152772338555997  0.5155640467849054   T   T   T
  0.8568144431290200  0.8560491645585078  0.5169288562493402   T   T   T
  0.0455057135012087  0.0941051387914628  0.5025414231206059   T   T   T
  0.0446737014880801  0.2364393335413728  0.5027936545376873   T   T   T
  0.0453469402856115  0.3798595302124646  0.5024605115544780   T   T   T
  0.0459565786603833  0.5228335570148935  0.5007905573953702   T   T   T
  0.0462785105168356  0.6658721930960687  0.4968299926256422   T   T   T
  0.0467067533888644  0.8090102777822940  0.4963049944869848   T   T   T
  0.0463774123967839  0.9519096918238237  0.4985375006470010   T   T   T
  0.1885705062595339  0.0943757686305565  0.4927509389092271   T   T   T
  0.1875284721463729  0.2369460781527505  0.4972038017112416   T   T   T
  0.1870224153687833  0.3794132009254493  0.4922083881843842   T   T   T
  0.1891878951817807  0.5234216324520392  0.4938588634223264   T   T   T
  0.1886740426397546  0.6659140201517446  0.4934559293490504   T   T   T
  0.1889699367817528  0.8088576476264001  0.4912120744743615   T   T   T
  0.1890901810386159  0.9517345628023127  0.4909016475175954   T   T   T
  0.3316925913550610  0.0942371647228980  0.4926755463948084   T   T   T
  0.3310964742527667  0.2364376909597326  0.4994386283946562   T   T   T
  0.3247048969962274  0.3757122769409134  0.4718430788073859   T   T   T
  0.3269005288971409  0.5213377584506947  0.4738615547081861   T   T   T
  0.3347292374419762  0.6698343855054847  0.4929418496879311   T   T   T
  0.3312779133118264  0.8090396456079492  0.4938310513352321   T   T   T
  0.3317553256613550  0.9516600370317637  0.4916552727891679   T   T   T
  0.4747816235041241  0.0941295916338123  0.4975472003516325   T   T   T
  0.4739751739185440  0.2364383507011724  0.5059437404060081   T   T   T
  0.4699580537525173  0.8046035285216948  0.5054683238278138   T   T   T
  0.4743539766742172  0.9511128805501758  0.4993898246743697   T   T   T
  0.6169657995564780  0.0931452756991627  0.5068227027784947   T   T   T
  0.6175403853032756  0.2366655757044631  0.5099813113005921   T   T   T
  0.6214795046259447  0.3780909140504668  0.4961234524317852   T   T   T
  0.6176810025992959  0.8102136247662607  0.5300391797987789   T   T   T
  0.6159032135143420  0.9488326479496723  0.5104474199330730   T   T   T
  0.7592537552229593  0.0925067543157509  0.5108631059217497   T   T   T
  0.7599299947339155  0.2363076467912374  0.5107449834457853   T   T   T
  0.7603701078305839  0.3799687830154747  0.5150879081197642   T   T   T
  0.7611184428970807  0.5254352498579289  0.5208259455936668   T   T   T
  0.7658520814365853  0.6714738898082007  0.5347185391930546   T   T   T
  0.7616735733070951  0.8046974242471829  0.5301396696963399   T   T   T
  0.7591163585950098  0.9487510393951939  0.5172564936456551   T   T   T
  0.9019756366946875  0.0929535087258792  0.5093852495855992   T   T   T
  0.9022284038094508  0.2363115656671205  0.5085231496379246   T   T   T
  0.9027556263294308  0.3798336115225569  0.5092824676472827   T   T   T
  0.9031408374204738  0.5231942186811298  0.5064285427076174   T   T   T
  0.9046932405787719  0.6665989667424805  0.5074221240183875   T   T   T
  0.9052169527752089  0.8097437868035686  0.5105128257194321   T   T   T
  0.9030822357773889  0.9508848877812123  0.5110951230503683   T   T   T
  0.4595369851126202  0.3566279158490489  0.5633320731071432   T   T   T
  0.4101081714556464  0.4165905521262593  0.4423737806437636   T   T   T
  0.4151238907904314  0.5637444990814003  0.4582176247187708   T   T   T
  0.6392292083511477  0.5357900329419765  0.5803335746230494   T   T   T
  0.5816444479383664  0.4208292001500412  0.4603808978660350   T   T   T
  0.5722525694938034  0.7227423909584109  0.5493298435608009   T   T   T
  0.4240902745397326  0.7146233791678691  0.5004730319570498   T   T   T
  0.7198250559655732  0.7159235074105338  0.5425837351404000   T   T   T
  0.6120858070951294  0.6350087306840349  0.4801888397071812   T   T   T
  0.5320892853380538  0.5438496995299299  0.4529074137155032   T   T   T
  0.5875622344726095  0.5929260891401010  0.4302241371666824   T   T   F
 
  0.00000000E+00  0.00000000E+00  0.00000000E+00
  0.00000000E+00  0.00000000E+00  0.00000000E+00
  0.00000000E+00  0.00000000E+00  0.00000000E+00
  0.00000000E+00  0.00000000E+00  0.00000000E+00
  0.00000000E+00  0.00000000E+00  0.00000000E+00
  0.00000000E+00  0.00000000E+00  0.00000000E+00
  0.00000000E+00  0.00000000E+00  0.00000000E+00
  0.00000000E+00  0.00000000E+00  0.00000000E+00
  0.00000000E+00  0.00000000E+00  0.00000000E+00
  0.00000000E+00  0.00000000E+00  0.00000000E+00
  0.00000000E+00  0.00000000E+00  0.00000000E+00
  0.00000000E+00  0.00000000E+00  0.00000000E+00
  0.00000000E+00  0.00000000E+00  0.00000000E+00
  0.00000000E+00  0.00000000E+00  0.00000000E+00
  0.00000000E+00  0.00000000E+00  0.00000000E+00
  0.00000000E+00  0.00000000E+00  0.00000000E+00
  0.00000000E+00  0.00000000E+00  0.00000000E+00
  0.00000000E+00  0.00000000E+00  0.00000000E+00
  0.00000000E+00  0.00000000E+00  0.00000000E+00
  0.00000000E+00  0.00000000E+00  0.00000000E+00
  0.00000000E+00  0.00000000E+00  0.00000000E+00
  0.00000000E+00  0.00000000E+00  0.00000000E+00
  0.00000000E+00  0.00000000E+00  0.00000000E+00
  0.00000000E+00  0.00000000E+00  0.00000000E+00
  0.00000000E+00  0.00000000E+00  0.00000000E+00
  0.00000000E+00  0.00000000E+00  0.00000000E+00
  0.00000000E+00  0.00000000E+00  0.00000000E+00
  0.00000000E+00  0.00000000E+00  0.00000000E+00
  0.00000000E+00  0.00000000E+00  0.00000000E+00
  0.00000000E+00  0.00000000E+00  0.00000000E+00
  0.00000000E+00  0.00000000E+00  0.00000000E+00
  0.00000000E+00  0.00000000E+00  0.00000000E+00
  0.00000000E+00  0.00000000E+00  0.00000000E+00
  0.00000000E+00  0.00000000E+00  0.00000000E+00
  0.00000000E+00  0.00000000E+00  0.00000000E+00
  0.00000000E+00  0.00000000E+00  0.00000000E+00
  0.00000000E+00  0.00000000E+00  0.00000000E+00
  0.00000000E+00  0.00000000E+00  0.00000000E+00
  0.00000000E+00  0.00000000E+00  0.00000000E+00
  0.00000000E+00  0.00000000E+00  0.00000000E+00
  0.00000000E+00  0.00000000E+00  0.00000000E+00
  0.00000000E+00  0.00000000E+00  0.00000000E+00
  0.00000000E+00  0.00000000E+00  0.00000000E+00
  0.00000000E+00  0.00000000E+00  0.00000000E+00
  0.00000000E+00  0.00000000E+00  0.00000000E+00
  0.00000000E+00  0.00000000E+00  0.00000000E+00
  0.00000000E+00  0.00000000E+00  0.00000000E+00
  0.00000000E+00  0.00000000E+00  0.00000000E+00
  0.00000000E+00  0.00000000E+00  0.00000000E+00
  0.00000000E+00  0.00000000E+00  0.00000000E+00
  0.00000000E+00  0.00000000E+00  0.00000000E+00
  0.00000000E+00  0.00000000E+00  0.00000000E+00
  0.00000000E+00  0.00000000E+00  0.00000000E+00
  0.00000000E+00  0.00000000E+00  0.00000000E+00
  0.00000000E+00  0.00000000E+00  0.00000000E+00
  0.00000000E+00  0.00000000E+00  0.00000000E+00
  0.00000000E+00  0.00000000E+00  0.00000000E+00
  0.00000000E+00  0.00000000E+00  0.00000000E+00
  0.00000000E+00  0.00000000E+00  0.00000000E+00
  0.00000000E+00  0.00000000E+00  0.00000000E+00
  0.00000000E+00  0.00000000E+00  0.00000000E+00
  0.00000000E+00  0.00000000E+00  0.00000000E+00
  0.00000000E+00  0.00000000E+00  0.00000000E+00
  0.00000000E+00  0.00000000E+00  0.00000000E+00
  0.00000000E+00  0.00000000E+00  0.00000000E+00
  0.00000000E+00  0.00000000E+00  0.00000000E+00
  0.00000000E+00  0.00000000E+00  0.00000000E+00
  0.00000000E+00  0.00000000E+00  0.00000000E+00
  0.00000000E+00  0.00000000E+00  0.00000000E+00
  0.00000000E+00  0.00000000E+00  0.00000000E+00
  0.00000000E+00  0.00000000E+00  0.00000000E+00
  0.00000000E+00  0.00000000E+00  0.00000000E+00
  0.00000000E+00  0.00000000E+00  0.00000000E+00
  0.00000000E+00  0.00000000E+00  0.00000000E+00
  0.00000000E+00  0.00000000E+00  0.00000000E+00
  0.00000000E+00  0.00000000E+00  0.00000000E+00
  0.00000000E+00  0.00000000E+00  0.00000000E+00
  0.00000000E+00  0.00000000E+00  0.00000000E+00
  0.00000000E+00  0.00000000E+00  0.00000000E+00
  0.00000000E+00  0.00000000E+00  0.00000000E+00
  0.00000000E+00  0.00000000E+00  0.00000000E+00
  0.00000000E+00  0.00000000E+00  0.00000000E+00
  0.00000000E+00  0.00000000E+00  0.00000000E+00
  0.00000000E+00  0.00000000E+00  0.00000000E+00
  0.00000000E+00  0.00000000E+00  0.00000000E+00
  0.00000000E+00  0.00000000E+00  0.00000000E+00
  0.00000000E+00  0.00000000E+00  0.00000000E+00
  0.00000000E+00  0.00000000E+00  0.00000000E+00
  0.00000000E+00  0.00000000E+00  0.00000000E+00
  0.00000000E+00  0.00000000E+00  0.00000000E+00
  0.00000000E+00  0.00000000E+00  0.00000000E+00
  0.00000000E+00  0.00000000E+00  0.00000000E+00
  0.00000000E+00  0.00000000E+00  0.00000000E+00
  0.00000000E+00  0.00000000E+00  0.00000000E+00
  0.00000000E+00  0.00000000E+00  0.00000000E+00
  0.00000000E+00  0.00000000E+00  0.00000000E+00
  0.00000000E+00  0.00000000E+00  0.00000000E+00
