C    F    N    H    O                   
    1.000000000000000     
    17.2710380553999983    0.0000000000000000    0.0000000000000000
    -8.6355190276999991   14.9571577057000002    0.0000000000000000
     0.0000000000000000    0.0000000000000000   15.0000000000000000
   C    F    N    H    O 
    86     6     2     2     1
Selective dynamics
Direct
  0.9981704417935153  0.9988711852456793  0.5033247402711746   T   T   T
  0.9974421084970960  0.1412656124298044  0.5054397990334782   T   T   T
  0.9975904873006338  0.2844107221903039  0.5050704076792464   T   T   T
  0.9980768199337522  0.4275533199968151  0.5044578086111000   T   T   T
  0.9983814571374634  0.5706152678770423  0.5006097721260169   T   T   T
  0.9994576679853663  0.7139007046842540  0.4987965138503420   T   T   T
 -0.0002352773044071  0.8571011093331359  0.5000807292860596   T   T   T
  0.1415184203697998  0.9995853853621525  0.4929552592485165   T   T   T
  0.1406536710551388  0.1418834944835516  0.4985588536390489   T   T   T
  0.1399577130384611  0.2843882907520430  0.4978418196685388   T   T   T
  0.1408260195301527  0.4279890427129702  0.4967081189923412   T   T   T
  0.1412511703037308  0.5705826988174144  0.4965338217191430   T   T   T
  0.1414257698357628  0.7135093540999067  0.4931968625890190   T   T   T
  0.1416836533958352  0.8566143844819728  0.4917895087002290   T   T   T
  0.2841642074595806  0.9991477404546838  0.4910272319370777   T   T   T
  0.2839028603273478  0.1415685628710472  0.4921222261274083   T   T   T
  0.2831592573094242  0.2849262956638363  0.4923244285220716   T   T   T
  0.2815750469664843  0.4267227384442755  0.4782278709622848   T   T   T
  0.2853294746815904  0.5719220352666982  0.4869708294778132   T   T   T
  0.2838808262958298  0.7142666742300726  0.4929788366629405   T   T   T
  0.2839125834618960  0.8567938374653604  0.4914755237674196   T   T   T
  0.4271319017259367  0.9990872098518688  0.4948541122996925   T   T   T
  0.4268231273759781  0.1416679423208833  0.4960946855251971   T   T   T
  0.4220646007244934  0.2771902068977591  0.5203076504547292   T   T   T
  0.4260093729790159  0.8559021152941456  0.4985825794499680   T   T   T
  0.5692616666032670  0.9978322428558778  0.5042591869684916   T   T   T
  0.5696705357963342  0.1411999106479380  0.5052354537898167   T   T   T
  0.5702769865093533  0.2846051204516933  0.5056768761293043   T   T   T
  0.5673341522503661  0.8530950856440681  0.5142887699795626   T   T   T
  0.7113819361877046  0.9965342093761308  0.5124590671846999   T   T   T
  0.7122908943920484  0.1408258122321067  0.5093387201599809   T   T   T
  0.7127025242888616  0.2845316815292709  0.5115380625743010   T   T   T
  0.7132018917239610  0.4284005464964621  0.5127515979307471   T   T   T
  0.7215667567321065  0.5765393318619285  0.5428168975063892   T   T   T
  0.7117160938184200  0.8530308391822955  0.5257592293585172   T   T   T
  0.8546474796983983  0.9977621217467905  0.5123048746845161   T   T   T
  0.8545120723761597  0.1407893497531995  0.5096661933283352   T   T   T
  0.8550681597947161  0.2842478771180194  0.5099194110794247   T   T   T
  0.8556784346067208  0.4277333107725655  0.5113922926400953   T   T   T
  0.8564485427707644  0.5717383117182179  0.5089059736090238   T   T   T
  0.8588760527751796  0.7152703839091359  0.5146117152857286   T   T   T
  0.8568191251751949  0.8560489310804080  0.5159749244833856   T   T   T
  0.0455457830757745  0.0941330315015931  0.5025053547044309   T   T   T
  0.0447326346301762  0.2364698613376464  0.5030858702525113   T   T   T
  0.0453903405394756  0.3798841708229879  0.5026237127251818   T   T   T
  0.0459996307970051  0.5228569372614572  0.5007246392129563   T   T   T
  0.0463297706556139  0.6658990842771816  0.4966226789356500   T   T   T
  0.0467409051872939  0.8090408019952037  0.4960058588405216   T   T   T
  0.0464033345555471  0.9519345450177832  0.4982450746988951   T   T   T
  0.1885989695424316  0.0944159725484178  0.4929144588765905   T   T   T
  0.1875860758680180  0.2369868941268212  0.4976582942737241   T   T   T
  0.1870656728155477  0.3794368740326901  0.4925946451027510   T   T   T
  0.1892267087705811  0.5234484802507213  0.4939570869607994   T   T   T
  0.1887074633930440  0.6659417525286326  0.4934838063164985   T   T   T
  0.1889996600500319  0.8089018140501542  0.4912798452225765   T   T   T
  0.1891150645499417  0.9517739673586523  0.4909673798937861   T   T   T
  0.3317131244840807  0.0942810527460542  0.4927976545456961   T   T   T
  0.3311409976063759  0.2364682743985456  0.4996496579280215   T   T   T
  0.3247187117724756  0.3757266057972662  0.4721785471602509   T   T   T
  0.3269103659690061  0.5213170147727159  0.4741378813268103   T   T   T
  0.3347472957391587  0.6698775769793612  0.4927692539369061   T   T   T
  0.3312792486025157  0.8090831091465339  0.4937570533755528   T   T   T
  0.3317717677323164  0.9517131838609847  0.4917052049121155   T   T   T
  0.4748033560249093  0.0941731427888171  0.4973837318415769   T   T   T
  0.4740318644832815  0.2364883613621055  0.5056921084578704   T   T   T
  0.4699876516589526  0.8046847549319270  0.5048688326433352   T   T   T
  0.4743623396979528  0.9511633807737846  0.4990819137061095   T   T   T
  0.6169939515447914  0.0931907171574407  0.5064243568871901   T   T   T
  0.6175885136793990  0.2366913920779116  0.5095654518250067   T   T   T
  0.6214964649584155  0.3780735100217033  0.4954241071138535   T   T   T
  0.6176969934519124  0.8101976572335856  0.5288123804071024   T   T   T
  0.6159315372913589  0.9488844690814481  0.5097044451721926   T   T   T
  0.7592908122248319  0.0925494430990583  0.5103898738280539   T   T   T
  0.7599742434371309  0.2363345793707580  0.5103703552328069   T   T   T
  0.7604102671465932  0.3799963976249058  0.5145679078389672   T   T   T
  0.7611596825909787  0.5254290767552297  0.5199151684559189   T   T   T
  0.7657886445011949  0.6714216395440984  0.5335754703006733   T   T   T
  0.7616657317313597  0.8046793354309262  0.5290047911214149   T   T   T
  0.7591330138325357  0.9487682955110779  0.5163600945421466   T   T   T
  0.9020119113802912  0.0929783394439083  0.5090820370735489   T   T   T
  0.9022771256521481  0.2363406843151734  0.5084658432951773   T   T   T
  0.9027921664723425  0.3798534485000666  0.5090536613920991   T   T   T
  0.9031813060681805  0.5232079964091361  0.5058802154587128   T   T   T
  0.9047256333037412  0.6666061430594467  0.5067127022330582   T   T   T
  0.9052154759409329  0.8097410737024958  0.5096335940770350   T   T   T
  0.9030946707487396  0.9508957283012592  0.5103630296659027   T   T   T
  0.4597600846600201  0.3567600561467211  0.5631773112894953   T   T   T
  0.4100258536426687  0.4165457068384303  0.4424164796657841   T   T   T
  0.4151333807397783  0.5636595215850894  0.4585857649578148   T   T   T
  0.6392820333748651  0.5356177300784112  0.5794314950946300   T   T   T
  0.5816152371964163  0.4207001767784860  0.4595556119847352   T   T   T
  0.5722758822554368  0.7226820910442610  0.5478279973923581   T   T   T
  0.4241214769788136  0.7146999761678876  0.4999451602766182   T   T   T
  0.7197674554795284  0.7158810049040710  0.5413140622166701   T   T   T
  0.6114565033218667  0.6344906917312719  0.4798077604236510   T   T   T
  0.5309270833616391  0.5434145302943368  0.4531855529027461   T   T   T
  0.5865780051511544  0.5919852355195866  0.4302241371666824   T   T   F
 
  0.00000000E+00  0.00000000E+00  0.00000000E+00
  0.00000000E+00  0.00000000E+00  0.00000000E+00
  0.00000000E+00  0.00000000E+00  0.00000000E+00
  0.00000000E+00  0.00000000E+00  0.00000000E+00
  0.00000000E+00  0.00000000E+00  0.00000000E+00
  0.00000000E+00  0.00000000E+00  0.00000000E+00
  0.00000000E+00  0.00000000E+00  0.00000000E+00
  0.00000000E+00  0.00000000E+00  0.00000000E+00
  0.00000000E+00  0.00000000E+00  0.00000000E+00
  0.00000000E+00  0.00000000E+00  0.00000000E+00
  0.00000000E+00  0.00000000E+00  0.00000000E+00
  0.00000000E+00  0.00000000E+00  0.00000000E+00
  0.00000000E+00  0.00000000E+00  0.00000000E+00
  0.00000000E+00  0.00000000E+00  0.00000000E+00
  0.00000000E+00  0.00000000E+00  0.00000000E+00
  0.00000000E+00  0.00000000E+00  0.00000000E+00
  0.00000000E+00  0.00000000E+00  0.00000000E+00
  0.00000000E+00  0.00000000E+00  0.00000000E+00
  0.00000000E+00  0.00000000E+00  0.00000000E+00
  0.00000000E+00  0.00000000E+00  0.00000000E+00
  0.00000000E+00  0.00000000E+00  0.00000000E+00
  0.00000000E+00  0.00000000E+00  0.00000000E+00
  0.00000000E+00  0.00000000E+00  0.00000000E+00
  0.00000000E+00  0.00000000E+00  0.00000000E+00
  0.00000000E+00  0.00000000E+00  0.00000000E+00
  0.00000000E+00  0.00000000E+00  0.00000000E+00
  0.00000000E+00  0.00000000E+00  0.00000000E+00
  0.00000000E+00  0.00000000E+00  0.00000000E+00
  0.00000000E+00  0.00000000E+00  0.00000000E+00
  0.00000000E+00  0.00000000E+00  0.00000000E+00
  0.00000000E+00  0.00000000E+00  0.00000000E+00
  0.00000000E+00  0.00000000E+00  0.00000000E+00
  0.00000000E+00  0.00000000E+00  0.00000000E+00
  0.00000000E+00  0.00000000E+00  0.00000000E+00
  0.00000000E+00  0.00000000E+00  0.00000000E+00
  0.00000000E+00  0.00000000E+00  0.00000000E+00
  0.00000000E+00  0.00000000E+00  0.00000000E+00
  0.00000000E+00  0.00000000E+00  0.00000000E+00
  0.00000000E+00  0.00000000E+00  0.00000000E+00
  0.00000000E+00  0.00000000E+00  0.00000000E+00
  0.00000000E+00  0.00000000E+00  0.00000000E+00
  0.00000000E+00  0.00000000E+00  0.00000000E+00
  0.00000000E+00  0.00000000E+00  0.00000000E+00
  0.00000000E+00  0.00000000E+00  0.00000000E+00
  0.00000000E+00  0.00000000E+00  0.00000000E+00
  0.00000000E+00  0.00000000E+00  0.00000000E+00
  0.00000000E+00  0.00000000E+00  0.00000000E+00
  0.00000000E+00  0.00000000E+00  0.00000000E+00
  0.00000000E+00  0.00000000E+00  0.00000000E+00
  0.00000000E+00  0.00000000E+00  0.00000000E+00
  0.00000000E+00  0.00000000E+00  0.00000000E+00
  0.00000000E+00  0.00000000E+00  0.00000000E+00
  0.00000000E+00  0.00000000E+00  0.00000000E+00
  0.00000000E+00  0.00000000E+00  0.00000000E+00
  0.00000000E+00  0.00000000E+00  0.00000000E+00
  0.00000000E+00  0.00000000E+00  0.00000000E+00
  0.00000000E+00  0.00000000E+00  0.00000000E+00
  0.00000000E+00  0.00000000E+00  0.00000000E+00
  0.00000000E+00  0.00000000E+00  0.00000000E+00
  0.00000000E+00  0.00000000E+00  0.00000000E+00
  0.00000000E+00  0.00000000E+00  0.00000000E+00
  0.00000000E+00  0.00000000E+00  0.00000000E+00
  0.00000000E+00  0.00000000E+00  0.00000000E+00
  0.00000000E+00  0.00000000E+00  0.00000000E+00
  0.00000000E+00  0.00000000E+00  0.00000000E+00
  0.00000000E+00  0.00000000E+00  0.00000000E+00
  0.00000000E+00  0.00000000E+00  0.00000000E+00
  0.00000000E+00  0.00000000E+00  0.00000000E+00
  0.00000000E+00  0.00000000E+00  0.00000000E+00
  0.00000000E+00  0.00000000E+00  0.00000000E+00
  0.00000000E+00  0.00000000E+00  0.00000000E+00
  0.00000000E+00  0.00000000E+00  0.00000000E+00
  0.00000000E+00  0.00000000E+00  0.00000000E+00
  0.00000000E+00  0.00000000E+00  0.00000000E+00
  0.00000000E+00  0.00000000E+00  0.00000000E+00
  0.00000000E+00  0.00000000E+00  0.00000000E+00
  0.00000000E+00  0.00000000E+00  0.00000000E+00
  0.00000000E+00  0.00000000E+00  0.00000000E+00
  0.00000000E+00  0.00000000E+00  0.00000000E+00
  0.00000000E+00  0.00000000E+00  0.00000000E+00
  0.00000000E+00  0.00000000E+00  0.00000000E+00
  0.00000000E+00  0.00000000E+00  0.00000000E+00
  0.00000000E+00  0.00000000E+00  0.00000000E+00
  0.00000000E+00  0.00000000E+00  0.00000000E+00
  0.00000000E+00  0.00000000E+00  0.00000000E+00
  0.00000000E+00  0.00000000E+00  0.00000000E+00
  0.00000000E+00  0.00000000E+00  0.00000000E+00
  0.00000000E+00  0.00000000E+00  0.00000000E+00
  0.00000000E+00  0.00000000E+00  0.00000000E+00
  0.00000000E+00  0.00000000E+00  0.00000000E+00
  0.00000000E+00  0.00000000E+00  0.00000000E+00
  0.00000000E+00  0.00000000E+00  0.00000000E+00
  0.00000000E+00  0.00000000E+00  0.00000000E+00
  0.00000000E+00  0.00000000E+00  0.00000000E+00
  0.00000000E+00  0.00000000E+00  0.00000000E+00
  0.00000000E+00  0.00000000E+00  0.00000000E+00
  0.00000000E+00  0.00000000E+00  0.00000000E+00
