C4                                      
    1.000000000000000     
    17.2710380553999983    0.0000000000000000    0.0000000000000000
    -8.6355190276999991   14.9571577057000002    0.0000000000000000
     0.0000000000000000    0.0000000000000000   15.0000000000000000
   C    H    F 
    88     4     4
Direct
 -0.0013863916509977 -0.0014165203107819  0.2499993543048300
 -0.0012041639885097  0.1421126004307938  0.2500000396954862
 -0.0010957014460631  0.2852993090564538  0.2500000269116339
 -0.0000036829041460  0.4285839208928718  0.2499984431501331
  0.0016533024824787  0.5717013275524289  0.2499981249391417
  0.0024115677315474  0.7150846893535465  0.2499986595370733
  0.0010073258724559  0.8577072109255478  0.2499993391349920
  0.1425764722675968  0.0000817304615668  0.2500009536186562
  0.1406165637327827  0.1411366698536743  0.2500007704457533
  0.1395106738314524  0.2830387796869778  0.2500011934124552
  0.1413986774103375  0.4277631299677038  0.2499984220027928
  0.1440459586238751  0.5713066883930131  0.2499983502866941
  0.1431547229721860  0.7149842808386132  0.2499981781101318
  0.1433268703343785  0.8579537395932154  0.2499997629205250
  0.2853333927666066  0.0006298411731368  0.2500024722331999
  0.2846296444674833  0.1421978307886534  0.2499996684714769
  0.2823640968220920  0.2836347646986661  0.2499979279903041
  0.2791037410112211  0.4224284960653159  0.2500013478813178
  0.2885216595507811  0.5708378381052303  0.2500010755160232
  0.2834964971141823  0.7157742867405169  0.2500016203777147
  0.2853098944629062  0.8586759270004660  0.2500019862952094
  0.4283671001676900  0.0020071103121992  0.2500017516806072
  0.4281519779759441  0.1438772479953381  0.2500003119280753
  0.4256554958085512  0.2825418806176210  0.2499957855598090
  0.4214589216228721  0.7211326276913456  0.2499938805319606
  0.4277876005884009  0.8603153898600655  0.2499998930423540
  0.5714370336830933  0.0027233740572585  0.2499975816584447
  0.5712920018997806  0.1443421066578221  0.2500002095287771
  0.5722998237730232  0.2874862458817081  0.2500032175355368
  0.5721174209166341  0.8616776644114179  0.2499971939330307
  0.7149257909548126  0.0022586816876507  0.2499996534951503
  0.7143882715388751  0.1442056277290386  0.2499983268715573
  0.7144522494486255  0.2864006747012309  0.2500013041847336
  0.7150723811891101  0.4280602075281572  0.2500013039493439
  0.7216870163566020  0.5731637610078656  0.2500014231992615
  0.7195907109517768  0.7115486134922455  0.2499968510177410
  0.7175350329881057  0.8620727740927051  0.2499995154081678
  0.8580150199582912  0.0011584560696985  0.2499996309544087
  0.8568570451521854  0.1434004203164718  0.2499992315997860
  0.8569081510044891  0.2860097885221385  0.2499991288668604
  0.8580339490360606  0.4287153399155875  0.2499984501949108
  0.8603589024049969  0.5720705139889835  0.2499994217499354
  0.8621678366036692  0.7156015685617707  0.2500025409065094
  0.8560134701432967  0.8552095269911965  0.2500010307668658
  0.0457772912446995  0.0938034238026400  0.2500001007894591
  0.0451590992715384  0.2365515659951988  0.2500003809196922
  0.0464690591668393  0.3805225121766819  0.2499989068891018
  0.0488572955721326  0.5237714085503190  0.2499983667525685
  0.0487762790297924  0.6670186288234041  0.2499978217862961
  0.0486064504361927  0.8101335451322218  0.2499989607340035
  0.0475030210201131  0.9522636775117341  0.2499990108187622
  0.1893709689509995  0.0945306116727134  0.2500011506774845
  0.1871403760402409  0.2356720194281600  0.2499996171353338
  0.1854499134276660  0.3773599174003505  0.2499992290291663
  0.1914857117522816  0.5230489771356358  0.2499981416370596
  0.1894547507634326  0.6670282793788408  0.2499993582091564
  0.1905696571322871  0.8104246600109086  0.2500006859530849
  0.1904873518506439  0.9528893804786825  0.2500006491767242
  0.3329765936847687  0.0957776033269620  0.2500004498183276
  0.3325056135158040  0.2369760855830969  0.2499967449888124
  0.3257937518325845  0.3754215458420141  0.2499997069402034
  0.3281022775008697  0.5160990929111672  0.2500089551031778
  0.3300449545595309  0.6684992372576346  0.2500007063722777
  0.3325748951001141  0.8112682908871298  0.2500010447291577
  0.3329921098812502  0.9536954228350534  0.2500027874263170
  0.4761148084171762  0.0968164001365779  0.2500005495233408
  0.4752650046378684  0.2389658758281577  0.2499977128568264
  0.4754868526604376  0.8135459068527862  0.2499988141149129
  0.4761518918405518  0.9552354506608784  0.2499997573447173
  0.6190468079294275  0.0972519803810299  0.2499980848254903
  0.6192686088029012  0.2393635650072171  0.2500030091335648
  0.6219636104535265  0.3806451746186059  0.2500027517522048
  0.6261091791298490  0.8231843231921810  0.2500041208351960
  0.6197941147087607  0.9560964136911848  0.2499973158711780
  0.7620640077619689  0.0968424945419554  0.2499988840573408
  0.7620088631528347  0.2388127128170413  0.2499992451067210
  0.7628521331651700  0.3811431338264240  0.2500005309297436
  0.7651220162920280  0.5248170329229529  0.2500005580844866
  0.7685657360685401  0.6668907134110240  0.2500015460842895
  0.7590376934372124  0.8059029524880940  0.2500014807832578
  0.7640453196436101  0.9558557743924538  0.2499984928618836
  0.9043811061519629  0.0954524723953519  0.2499996855559611
  0.9041015387946730  0.2382397342030484  0.2499997637416807
  0.9049086242395553  0.3811813891395940  0.2499983572926633
  0.9068258280351017  0.5240334390589452  0.2499981526070780
  0.9080147804352969  0.6671125005453277  0.2500004911328160
  0.9061367407504035  0.8100649538744833  0.2500003846569197
  0.9034524060725344  0.9508863967707353  0.2499993200859474
  0.4612045051783752  0.3550743217347475  0.2499988041512089
  0.3979147459941185  0.4133313561894907  0.2499984652149059
  0.6495835359959122  0.5389824560780153  0.2500000176575454
  0.5864457252324975  0.4176490446115710  0.2500009520020207
  0.4159335697595373  0.5381051195279404  0.2500372953888895
  0.6318859655320613  0.6455809395397718  0.2499932684605894
  0.5906299956880419  0.7365027381417302  0.2500087882092414
  0.4573881083262462  0.6703494899076083  0.2499752679918401
 
  0.00000000E+00  0.00000000E+00  0.00000000E+00
  0.00000000E+00  0.00000000E+00  0.00000000E+00
  0.00000000E+00  0.00000000E+00  0.00000000E+00
  0.00000000E+00  0.00000000E+00  0.00000000E+00
  0.00000000E+00  0.00000000E+00  0.00000000E+00
  0.00000000E+00  0.00000000E+00  0.00000000E+00
  0.00000000E+00  0.00000000E+00  0.00000000E+00
  0.00000000E+00  0.00000000E+00  0.00000000E+00
  0.00000000E+00  0.00000000E+00  0.00000000E+00
  0.00000000E+00  0.00000000E+00  0.00000000E+00
  0.00000000E+00  0.00000000E+00  0.00000000E+00
  0.00000000E+00  0.00000000E+00  0.00000000E+00
  0.00000000E+00  0.00000000E+00  0.00000000E+00
  0.00000000E+00  0.00000000E+00  0.00000000E+00
  0.00000000E+00  0.00000000E+00  0.00000000E+00
  0.00000000E+00  0.00000000E+00  0.00000000E+00
  0.00000000E+00  0.00000000E+00  0.00000000E+00
  0.00000000E+00  0.00000000E+00  0.00000000E+00
  0.00000000E+00  0.00000000E+00  0.00000000E+00
  0.00000000E+00  0.00000000E+00  0.00000000E+00
  0.00000000E+00  0.00000000E+00  0.00000000E+00
  0.00000000E+00  0.00000000E+00  0.00000000E+00
  0.00000000E+00  0.00000000E+00  0.00000000E+00
  0.00000000E+00  0.00000000E+00  0.00000000E+00
  0.00000000E+00  0.00000000E+00  0.00000000E+00
  0.00000000E+00  0.00000000E+00  0.00000000E+00
  0.00000000E+00  0.00000000E+00  0.00000000E+00
  0.00000000E+00  0.00000000E+00  0.00000000E+00
  0.00000000E+00  0.00000000E+00  0.00000000E+00
  0.00000000E+00  0.00000000E+00  0.00000000E+00
  0.00000000E+00  0.00000000E+00  0.00000000E+00
  0.00000000E+00  0.00000000E+00  0.00000000E+00
  0.00000000E+00  0.00000000E+00  0.00000000E+00
  0.00000000E+00  0.00000000E+00  0.00000000E+00
  0.00000000E+00  0.00000000E+00  0.00000000E+00
  0.00000000E+00  0.00000000E+00  0.00000000E+00
  0.00000000E+00  0.00000000E+00  0.00000000E+00
  0.00000000E+00  0.00000000E+00  0.00000000E+00
  0.00000000E+00  0.00000000E+00  0.00000000E+00
  0.00000000E+00  0.00000000E+00  0.00000000E+00
  0.00000000E+00  0.00000000E+00  0.00000000E+00
  0.00000000E+00  0.00000000E+00  0.00000000E+00
  0.00000000E+00  0.00000000E+00  0.00000000E+00
  0.00000000E+00  0.00000000E+00  0.00000000E+00
  0.00000000E+00  0.00000000E+00  0.00000000E+00
  0.00000000E+00  0.00000000E+00  0.00000000E+00
  0.00000000E+00  0.00000000E+00  0.00000000E+00
  0.00000000E+00  0.00000000E+00  0.00000000E+00
  0.00000000E+00  0.00000000E+00  0.00000000E+00
  0.00000000E+00  0.00000000E+00  0.00000000E+00
  0.00000000E+00  0.00000000E+00  0.00000000E+00
  0.00000000E+00  0.00000000E+00  0.00000000E+00
  0.00000000E+00  0.00000000E+00  0.00000000E+00
  0.00000000E+00  0.00000000E+00  0.00000000E+00
  0.00000000E+00  0.00000000E+00  0.00000000E+00
  0.00000000E+00  0.00000000E+00  0.00000000E+00
  0.00000000E+00  0.00000000E+00  0.00000000E+00
  0.00000000E+00  0.00000000E+00  0.00000000E+00
  0.00000000E+00  0.00000000E+00  0.00000000E+00
  0.00000000E+00  0.00000000E+00  0.00000000E+00
  0.00000000E+00  0.00000000E+00  0.00000000E+00
  0.00000000E+00  0.00000000E+00  0.00000000E+00
  0.00000000E+00  0.00000000E+00  0.00000000E+00
  0.00000000E+00  0.00000000E+00  0.00000000E+00
  0.00000000E+00  0.00000000E+00  0.00000000E+00
  0.00000000E+00  0.00000000E+00  0.00000000E+00
  0.00000000E+00  0.00000000E+00  0.00000000E+00
  0.00000000E+00  0.00000000E+00  0.00000000E+00
  0.00000000E+00  0.00000000E+00  0.00000000E+00
  0.00000000E+00  0.00000000E+00  0.00000000E+00
  0.00000000E+00  0.00000000E+00  0.00000000E+00
  0.00000000E+00  0.00000000E+00  0.00000000E+00
  0.00000000E+00  0.00000000E+00  0.00000000E+00
  0.00000000E+00  0.00000000E+00  0.00000000E+00
  0.00000000E+00  0.00000000E+00  0.00000000E+00
  0.00000000E+00  0.00000000E+00  0.00000000E+00
  0.00000000E+00  0.00000000E+00  0.00000000E+00
  0.00000000E+00  0.00000000E+00  0.00000000E+00
  0.00000000E+00  0.00000000E+00  0.00000000E+00
  0.00000000E+00  0.00000000E+00  0.00000000E+00
  0.00000000E+00  0.00000000E+00  0.00000000E+00
  0.00000000E+00  0.00000000E+00  0.00000000E+00
  0.00000000E+00  0.00000000E+00  0.00000000E+00
  0.00000000E+00  0.00000000E+00  0.00000000E+00
  0.00000000E+00  0.00000000E+00  0.00000000E+00
  0.00000000E+00  0.00000000E+00  0.00000000E+00
  0.00000000E+00  0.00000000E+00  0.00000000E+00
  0.00000000E+00  0.00000000E+00  0.00000000E+00
  0.00000000E+00  0.00000000E+00  0.00000000E+00
  0.00000000E+00  0.00000000E+00  0.00000000E+00
  0.00000000E+00  0.00000000E+00  0.00000000E+00
  0.00000000E+00  0.00000000E+00  0.00000000E+00
  0.00000000E+00  0.00000000E+00  0.00000000E+00
  0.00000000E+00  0.00000000E+00  0.00000000E+00
  0.00000000E+00  0.00000000E+00  0.00000000E+00
  0.00000000E+00  0.00000000E+00  0.00000000E+00
