C    H    N    O 
    1.000000000000000     
  17.2710380553999983   0.0000000000000000   0.0000000000000000
  -8.6355190276999991  14.9571577057000002   0.0000000000000000
   0.0000000000000000   0.0000000000000000  15.0000000000000000
C    H    N    O 
84  6  4  1  
Selective dynamics
Direct
  0.9999904110886160  0.9998661062045960  0.4996186594875038 T T T
  0.9992606601452344  0.1421257174744628  0.4997494306924887 T T T
  0.9993591490860738  0.2853104843114709  0.4997786731261544 T T T
  0.9997668572833640  0.4283971907597853  0.4995097856326631 T T T
  0.9997900097072520  0.5713161302451888  0.4994830962321486 T T T
  0.0002917892535002  0.7142881922448473  0.4998601156482099 T T T
  0.0012555338633456  0.8578830648745662  0.4997705902961069 T T T
  0.1439428391232260  0.0015507341159746  0.4996210081445699 T T T
  0.1432704819207066  0.1438846105569177  0.5000027540858655 T T T
  0.1417607577896645  0.2854561359314041  0.5003691016365445 T T T
  0.1429525697528506  0.4288938653838610  0.5005048521656194 T T T
  0.1432821848578763  0.5713619283645395  0.4999041341906399 T T T
  0.1432297797837172  0.7144087348502665  0.4995198644894930 T T T
  0.1435550759487865  0.8579730831974646  0.4995111944337150 T T T
  0.2866417655631040  0.0017176166216793  0.4996832876026301 T T T
  0.2871241133548652  0.1457797519848253  0.5003219066305818 T T T
  0.2866316705253156  0.2911900901857365  0.5008175278660311 T T T
  0.2851894080037510  0.4262551669020091  0.5015645242184931 T T T
  0.2880258317667447  0.5709203915540237  0.5017460547008213 T T T
  0.2861803475987771  0.7147917090121291  0.5003067994185062 T T T
  0.2857423681067113  0.8580621651730261  0.4995588329158795 T T T
  0.4290045858103840  0.0006989087132845  0.4994952136401802 T T T
  0.4301298684837452  0.1452629027899150  0.5002593582281036 T T T
  0.4293261504375802  0.2866318705272211  0.5015240836521911 T T T
  0.4277710238746283  0.8567157097199796  0.5001255513380303 T T T
  0.5709690814528053  0.9990979757592768  0.4997476402229254 T T T
  0.5716634126569736  0.1428324318623437  0.4996781181728201 T T T
  0.5754939876890868  0.2895532942095515  0.5010679066323673 T T T
  0.5699711842868916  0.8540936239362189  0.5011214154404638 T T T
  0.7130363583423314  0.9974287961891004  0.5001221885967196 T T T
  0.7140581828416165  0.1417338146305535  0.4995578372699755 T T T
  0.7146161434402627  0.2852832670759780  0.4999469790322675 T T T
  0.7106351769226383  0.4254091240532708  0.5014194037464881 T T T
  0.7154985678005551  0.5737394326985903  0.5023428876830289 T T T
  0.7118960670608695  0.8533628271126994  0.5008629042585624 T T T
  0.8561884033508428  0.9984612563856784  0.4999726451281218 T T T
  0.8562671380908579  0.1416379055649437  0.4996894859358100 T T T
  0.8568051280136618  0.2850517214506955  0.4994911237729517 T T T
  0.8568293666014667  0.4282991637567272  0.4998493176430535 T T T
  0.8560070135885500  0.5708833401154682  0.5007348014704747 T T T
  0.8581870633444000  0.7148851988851942  0.5008926174083000 T T T
  0.8573630173318170  0.8559932949468890  0.5004890746747874 T T T
  0.0477390122999902  0.0953392485114841  0.4996872662518353 T T T
  0.0463968828526019  0.2373234333652120  0.4999333210525400 T T T
  0.0472143931375503  0.3807945026347871  0.4998674531836546 T T T
  0.0477600709240896  0.5237825015584086  0.4994708099931838 T T T
  0.0477798659238710  0.6667323578556651  0.4995208483253969 T T T
  0.0481950918724894  0.8098074598614881  0.4996670581165242 T T T
  0.0484250521126988  0.9530450648463654  0.4995795743369945 T T T
  0.1915549325932218  0.0968184814369205  0.4999431556291115 T T T
  0.1903593945339274  0.2392556952835037  0.5004960196789322 T T T
  0.1893875372832537  0.3803359926134834  0.5008911847223942 T T T
  0.1915472637305640  0.5242906300163922  0.5006725578707054 T T T
  0.1907964809329800  0.6668591569432841  0.4998571522085758 T T T
  0.1908107376134860  0.8100972976923614  0.4995010285916577 T T T
  0.1914027119796063  0.9535668852412588  0.4995814240281984 T T T
  0.3346744989864797  0.0978427836355500  0.5001348334827028 T T T
  0.3358662858965136  0.2419229723382229  0.5008641581298970 T T T
  0.3319794513463589  0.5214512361039443  0.5024949888506701 T T T
  0.3370333642207417  0.6698025621316411  0.5014595711340205 T T T
  0.3330235997584565  0.8098557716087836  0.4999471949909208 T T T
  0.3336035113972948  0.9533970376301406  0.4995214851134333 T T T
  0.4766711802838379  0.0960745678863378  0.4997289768222651 T T T
  0.4777233787991562  0.2411678831659576  0.5010385868923378 T T T
  0.4722083001637667  0.8056403907421543  0.5011639068097127 T T T
  0.4759953109906241  0.9523240147759092  0.4996443735167300 T T T
  0.6186829877596187  0.0944622429320114  0.4995509700629677 T T T
  0.6198770849002946  0.2384570307490151  0.5001158676151830 T T T
  0.6184221724941643  0.8086585303907022  0.5016272873277899 T T T
  0.6175908386925943  0.9499883372841224  0.5002842184763769 T T T
  0.7610761861950521  0.0934672813018919  0.4997018707003639 T T T
  0.7619015333465640  0.2370552430183437  0.4995282843940466 T T T
  0.7614551292295523  0.3803804471575817  0.5003294411747375 T T T
  0.7595028572690019  0.5243081804268854  0.5017288040257966 T T T
  0.7624018369037268  0.6689760769054111  0.5015031350607665 T T T
  0.7610632474402356  0.8040824471946613  0.5007877908764986 T T T
  0.7605840532864486  0.9494969666085296  0.5002971990680475 T T T
  0.9037476637474844  0.0937099878474241  0.4997738898011675 T T T
  0.9040491743450788  0.2371799486105446  0.4996022820045581 T T T
  0.9043233299341600  0.3806923114263165  0.4994947344102930 T T T
  0.9042804473461028  0.5237997691312120  0.4999310454483880 T T T
  0.9045529437301292  0.6662702666373373  0.5005501100956247 T T T
  0.9058991976630280  0.8097542221034947  0.5003070865434458 T T T
  0.9044425819155900  0.9513508842660486  0.4999998160197335 T T T
  0.4663867004133347  0.3593934157549769  0.5023277431227017 T T T
  0.4047871032816073  0.5574427798124448  0.5027747286961403 T T T
  0.6426950105449090  0.5377524423111569  0.5024033694471530 T T T
  0.5813556946074899  0.7359116552050868  0.5024945641806378 T T T
  0.5662539402297455  0.5940998466036328  0.4343657108254988 T T T
  0.4800049526702523  0.5001938282457510  0.4345585389644873 T T T
  0.4269219316891144  0.7151828622945343  0.5021321430257056 T T T
  0.7161480917578331  0.7143008255800500  0.5008319200151613 T T T
  0.3314805574670649  0.3809690719854635  0.5008966838641761 T T T
  0.6207386512647491  0.3799900804261827  0.5020561563988927 T T T
  0.5231518352960843  0.5470246445776175  0.3953361829999977 T T F
