C    H    N    O 
    1.000000000000000     
  17.2710380553999983   0.0000000000000000   0.0000000000000000
  -8.6355190276999991  14.9571577057000002   0.0000000000000000
   0.0000000000000000   0.0000000000000000  15.0000000000000000
C    H    N    O 
84  6  4  1  
Selective dynamics
Direct
  0.0016225227249266  0.0007683755266638  0.4992958142140048 T T T
  0.0011182920162453  0.1432548134874082  0.4995921168763584 T T T
  0.0007924668341881  0.2860690604932519  0.4997103120988355 T T T
  0.0011352070871516  0.4292030707574482  0.4997227618932741 T T T
  0.0016007436485653  0.5721587619320474  0.4996591334160576 T T T
  0.0019064923844376  0.7150172210356484  0.4993423757397798 T T T
  0.0019557370276437  0.8582577676765886  0.4992379594338036 T T T
  0.1453508723934723  0.0018765430706883  0.5001622067725396 T T T
  0.1449497993750931  0.1446326164916545  0.5010183812447313 T T T
  0.1431557336455599  0.2860845824736434  0.5017704083136781 T T T
  0.1431679407575422  0.4284117078141754  0.5017927046940125 T T T
  0.1449948209509102  0.5716244461251483  0.5012861250851028 T T T
  0.1453386927978550  0.7147765058248463  0.5004250315537606 T T T
  0.1452809983840302  0.8583176030649774  0.4997902450631428 T T T
  0.2882697841139346  0.0019354420639452  0.5004184388633736 T T T
  0.2885206666382693  0.1465882178326761  0.5019430234028049 T T T
  0.2879375331445854  0.2929121598554340  0.5046719837292547 T T T
  0.2858440243817201  0.4285703545414132  0.5061638666639483 T T T
  0.2879996355430395  0.5663578911093573  0.5046969265751100 T T T
  0.2885749236904149  0.7132935389810942  0.5019972447463791 T T T
  0.2882614203138605  0.8576834777452921  0.5004237087919828 T T T
  0.4308072946410219  0.0010784724825792  0.5002946913329167 T T T
  0.4314933397897577  0.1458274095528772  0.5007513597148860 T T T
  0.4306174188891405  0.2874547174034631  0.5019851106201673 T T T
  0.4306485899789473  0.7145256145061355  0.5020137520695565 T T T
  0.4315242722979433  0.8570541222616936  0.5007756440276914 T T T
  0.5731332127125994  0.0006822053491758  0.4997471459850313 T T T
  0.5731003549158876  0.1438458608815333  0.4997350422997674 T T T
  0.5767559015486651  0.2903969596235353  0.5000851794830330 T T T
  0.5768095020927503  0.8577689470702782  0.5001393881270854 T T T
  0.7160166195424911  0.0011344396350034  0.4992062592179456 T T T
  0.7158467277062317  0.1436291937150607  0.4989494079982731 T T T
  0.7160110636324007  0.2862965320794180  0.4991183454948389 T T T
  0.7120530921324359  0.4257542402658538  0.4999624142799652 T T T
  0.7164096479520152  0.5724595782417843  0.5027259608604518 T T T
  0.7164331246011243  0.7153332889949465  0.5026706872419576 T T T
  0.7121056078388218  0.8577176411774142  0.5000450101521960 T T T
  0.8583935220150485  0.0003992258334798  0.4991202169933824 T T T
  0.8583926997576971  0.1434394925459995  0.4987820606391786 T T T
  0.8584151733260510  0.2862896361728813  0.4987045369035395 T T T
  0.8584074472350877  0.4293498812570685  0.4990309848701491 T T T
  0.8576033425485269  0.5715943997768687  0.4994361296967379 T T T
  0.8588704964453566  0.7151333858168364  0.4999488558507597 T T T
  0.8576494022468854  0.8574117580870255  0.4995261914929344 T T T
  0.0494178722200585  0.0962278567610264  0.4998474236318608 T T T
  0.0480098341142557  0.2382607739026648  0.5002392466740492 T T T
  0.0480372081140763  0.3811042020500272  0.5002836609371918 T T T
  0.0494333436516404  0.5245103362942189  0.5001736189444551 T T T
  0.0497086959465124  0.6674955481021182  0.4997776997227656 T T T
  0.0496160441121524  0.8104627308096081  0.4994253317835745 T T T
  0.0497398003186508  0.9535462936214848  0.4994753375282107 T T T
  0.1929469039668059  0.0973080071163865  0.5011300484860899 T T T
  0.1919865909957000  0.2401703486142193  0.5022815609933879 T T T
  0.1901387038623551  0.3807249766060668  0.5028615154727276 T T T
  0.1920345680680888  0.5231440388772447  0.5023550516854431 T T T
  0.1929953508725893  0.6669735634047042  0.5013835037517441 T T T
  0.1929613796242989  0.8103979813522217  0.5001974436082022 T T T
  0.1929843748060026  0.9539101237822976  0.5000902958309735 T T T
  0.3360945391695114  0.0983655121244060  0.5010124186331423 T T T
  0.3370565765640178  0.2431540715545165  0.5032715643452267 T T T
  0.3370924736017757  0.6652534350929198  0.5032481849268862 T T T
  0.3361051857012839  0.8091065742835596  0.5010361993191164 T T T
  0.3354080705500638  0.9533822378312752  0.5003227274366585 T T T
  0.4781194039238304  0.0966307050425751  0.5002118351275079 T T T
  0.4789373399566605  0.2418429411638098  0.5008528721541430 T T T
  0.4789645994995813  0.8084571957292839  0.5008916124719476 T T T
  0.4781552710850087  0.9529014666788526  0.5002747292856778 T T T
  0.6204260489867267  0.0959216566929436  0.4994276502650371 T T T
  0.6212318802111672  0.2394394343189145  0.4995858048688680 T T T
  0.6212639671099818  0.9532140719913108  0.4996464931297661 T T T
  0.7635277663087515  0.0963525647855617  0.4988407072751518 T T T
  0.7635362963032727  0.2385830098138272  0.4987988619747009 T T T
  0.7629237098211316  0.3811376355587608  0.4992090076850834 T T T
  0.7610720151164574  0.5240357723208062  0.5004946924775874 T T T
  0.7629444460447437  0.6671541155386024  0.5018644178892161 T T T
  0.7611119948804609  0.8084424494962551  0.5005661776682887 T T T
  0.7629266957965664  0.9531855177348606  0.4993806213754537 T T T
  0.9058407338712025  0.0954099089627502  0.4990422410797425 T T T
  0.9057390596689512  0.2385183965227286  0.4988126120992323 T T T
  0.9058580168182730  0.3817541844408673  0.4990082135664277 T T T
  0.9060617188157146  0.5247175724108324  0.4992265216173135 T T T
  0.9060042067538684  0.6671076417362540  0.4993880343570191 T T T
  0.9060453372959034  0.8103009752899237  0.4994550392986298 T T T
  0.9060905259527118  0.9527387147498798  0.4991294112245599 T T T
  0.4680454648160841  0.3602456458108218  0.5011669786115777 T T T
  0.6435612917001911  0.6785147124829322  0.5055664420007595 T T T
  0.6435309147707702  0.5363944898395805  0.5056649041521591 T T T
  0.4680750073048452  0.6791635526770597  0.5013318972282450 T T T
  0.4598040492118952  0.5585288159843553  0.5805433225782077 T T T
  0.4593190336730081  0.4720740465848396  0.5800675782461736 T T T
  0.3322018996855216  0.3832304842189647  0.5079491603233899 T T T
  0.3322321368193349  0.5202777842821762  0.5079658331775752 T T T
  0.6220799897892643  0.3807600069964925  0.5001810657400569 T T T
  0.6221374832977810  0.8127433758637015  0.5002045234080723 T T T
  0.4944515887501403  0.5325086634641550  0.6046639079999991 T T F
