C4                                      
    1.000000000000000     
    17.2710380553999983    0.0000000000000000    0.0000000000000000
    -8.6355190276999991   14.9571577057000002    0.0000000000000000
     0.0000000000000000    0.0000000000000000   15.0000000000000000
   C    F    N 
    84     4     4
Direct
 -0.0013350313830107 -0.0013777886649924  0.2499943318108507
 -0.0006229603845863  0.1420049886216604  0.2499962778704001
  0.0002763292367948  0.2854231573358470  0.2499975649506140
  0.0003337169314784  0.4284083584668142  0.2499933087010133
  0.0008652548131270  0.5712569448235300  0.2499980904704634
  0.0021390264412176  0.7144539971269261  0.2500022025959101
  0.0004140933606600  0.8570967360453148  0.2499977028117267
  0.1429941588333064  0.0007028965628528  0.2499974417391548
  0.1429544265486520  0.1431748328597397  0.2499938377376467
  0.1433640534971893  0.2856929474881126  0.2499969965570079
  0.1435977233677952  0.4293280743536499  0.2499920037206760
  0.1437086049188584  0.5718939415386237  0.2499982537757377
  0.1436157645174999  0.7149797300335424  0.2499983579930520
  0.1432032707416490  0.8580801939508255  0.2500004440904328
  0.2858053960786845  0.0011429185508900  0.2499978129286149
  0.2864533526689833  0.1434811662283252  0.2499991064532713
  0.2883310641508112  0.2870601418392602  0.2500053121540771
  0.2858306975821899  0.4293649413218196  0.2500039820444090
  0.2881496386010031  0.5742774880253277  0.2500018175517228
  0.2854000488099823  0.7164459090261198  0.2499954174269535
  0.2851658696768766  0.8589245834415918  0.2499962530122796
  0.4285464576474828  0.0021205606357265  0.2499963612389712
  0.4293162327156102  0.1452314515164503  0.2499970936449280
  0.4270027595400367  0.8593057878764245  0.2499956720820298
  0.5708116009459729  0.0017765225489881  0.2499950837528155
  0.5714488017611293  0.1446300645056364  0.2499966731926811
  0.5742791448105060  0.2913844651378465  0.2499996611564977
  0.5684885624049711  0.8585141609460532  0.2500043973761185
  0.7129113468873318 -0.0011105627646968  0.2499983132937895
  0.7141929769269937  0.1430944489330505  0.2499994429090648
  0.7142083440538939  0.2861897735703774  0.2499970721026073
  0.7105867383908083  0.4259615858325086  0.2500015981152193
  0.7183160773350257  0.7076274369203781  0.2500008894341553
  0.7108040739680309  0.8536599397778271  0.2500066020943139
  0.8554264797842981 -0.0020059952645490  0.2499966132944066
  0.8566078629672693  0.1420482314526016  0.2499993852247924
  0.8571011611290801  0.2852662164265853  0.2499959073284899
  0.8571872484997923  0.4280590849799033  0.2499976529901835
  0.8583545255177046  0.5706145059673264  0.2500016274754354
  0.8610106119329393  0.7134860120678694  0.2500000943722143
  0.8547717283714281  0.8533407795284291  0.2499963231578770
  0.0470784939046581  0.0945586134170250  0.2499932221027318
  0.0475686079712447  0.2374921343070785  0.2499969844776002
  0.0479590876538874  0.3809731462161796  0.2499934664155398
  0.0484539877691625  0.5237381273096806  0.2499951987512901
  0.0488268595937324  0.6667001576606361  0.2499990773631787
  0.0482626357779205  0.8097757388901792  0.2499998239360697
  0.0474724488831837  0.9521708036101079  0.2499958364227588
  0.1907721126428177  0.0958195763966617  0.2499970497716581
  0.1917048229341721  0.2387063758569866  0.2499977008421189
  0.1902963388263363  0.3810395787495133  0.2499960706504246
  0.1919041374718691  0.5250041971220309  0.2499924438722447
  0.1906522839830750  0.6674519267031159  0.2499966992610046
  0.1904973103599392  0.8105122977576483  0.2499983172392872
  0.1907538303818954  0.9533352813352950  0.2499995024331778
  0.3340000357099506  0.0964971962370709  0.2499973283343477
  0.3380857968871890  0.2389969108828516  0.2500019101509517
  0.3314987022592781  0.3804103510316292  0.2500163680294415
  0.3312742835816733  0.5242476597784563  0.2500021247399161
  0.3363161315152742  0.6725021688933238  0.2499949555485175
  0.3323553073057340  0.8114239135509808  0.2499940108620349
  0.3331764672120954  0.9539656449283599  0.2499979041536876
  0.4765053018865652  0.0972719737919253  0.2499973254802538
  0.4747217210846456  0.2411272108649054  0.2500007229336410
  0.4711058416171429  0.8087601290336284  0.2499970554166833
  0.4757657339940400  0.9545490871696718  0.2499958446463187
  0.6187676304111714  0.0967068329078506  0.2499970496531719
  0.6190568390332669  0.2400980435486953  0.2499972633747089
  0.6174524931082204  0.8142452705507013  0.2500271365380515
  0.6175270114427338  0.9533358105425753  0.2499957050395443
  0.7612962284621503  0.0946734879642014  0.2499993822073167
  0.7619288149974410  0.2381289314451894  0.2499972004200143
  0.7615978598465640  0.3810424356756427  0.2499975477991789
  0.7619799424604696  0.5253095870379327  0.2500001458203510
  0.7670038537003865  0.6617407092192509  0.2500011623452812
  0.7574477539707516  0.8019946038557758  0.2500025510158084
  0.7597409076880830  0.9499240199779326  0.2499961560630345
  0.9036858129236003  0.0935754995075864  0.2499984247922026
  0.9046995832101754  0.2375412854113023  0.2499967543275902
  0.9047861412402750  0.3807020804549710  0.2499948962339659
  0.9056447106551135  0.5232579320864467  0.2499996255497582
  0.9074232094858696  0.6658218167032581  0.2500016116267322
  0.9051006541824764  0.8084610753326540  0.2499966127504958
  0.9026229834630701  0.9495352683232844  0.2499946923352502
  0.4207109254159034  0.4272881533760112  0.2500212741769513
  0.4205644900529263  0.5670593626738568  0.2500335702021632
  0.6310264983088351  0.6474827810787224  0.2499949547348443
  0.5672513802127364  0.7261345247131916  0.2500838220027348
  0.4282114419150919  0.2843736142648943  0.2499993827190450
  0.4254492513358694  0.7187349044588183  0.2499938490016606
  0.7190036186502011  0.5709894526808678  0.2499988966519240
  0.6205700195949188  0.3816799710425773  0.2500004081507370
 
  0.00000000E+00  0.00000000E+00  0.00000000E+00
  0.00000000E+00  0.00000000E+00  0.00000000E+00
  0.00000000E+00  0.00000000E+00  0.00000000E+00
  0.00000000E+00  0.00000000E+00  0.00000000E+00
  0.00000000E+00  0.00000000E+00  0.00000000E+00
  0.00000000E+00  0.00000000E+00  0.00000000E+00
  0.00000000E+00  0.00000000E+00  0.00000000E+00
  0.00000000E+00  0.00000000E+00  0.00000000E+00
  0.00000000E+00  0.00000000E+00  0.00000000E+00
  0.00000000E+00  0.00000000E+00  0.00000000E+00
  0.00000000E+00  0.00000000E+00  0.00000000E+00
  0.00000000E+00  0.00000000E+00  0.00000000E+00
  0.00000000E+00  0.00000000E+00  0.00000000E+00
  0.00000000E+00  0.00000000E+00  0.00000000E+00
  0.00000000E+00  0.00000000E+00  0.00000000E+00
  0.00000000E+00  0.00000000E+00  0.00000000E+00
  0.00000000E+00  0.00000000E+00  0.00000000E+00
  0.00000000E+00  0.00000000E+00  0.00000000E+00
  0.00000000E+00  0.00000000E+00  0.00000000E+00
  0.00000000E+00  0.00000000E+00  0.00000000E+00
  0.00000000E+00  0.00000000E+00  0.00000000E+00
  0.00000000E+00  0.00000000E+00  0.00000000E+00
  0.00000000E+00  0.00000000E+00  0.00000000E+00
  0.00000000E+00  0.00000000E+00  0.00000000E+00
  0.00000000E+00  0.00000000E+00  0.00000000E+00
  0.00000000E+00  0.00000000E+00  0.00000000E+00
  0.00000000E+00  0.00000000E+00  0.00000000E+00
  0.00000000E+00  0.00000000E+00  0.00000000E+00
  0.00000000E+00  0.00000000E+00  0.00000000E+00
  0.00000000E+00  0.00000000E+00  0.00000000E+00
  0.00000000E+00  0.00000000E+00  0.00000000E+00
  0.00000000E+00  0.00000000E+00  0.00000000E+00
  0.00000000E+00  0.00000000E+00  0.00000000E+00
  0.00000000E+00  0.00000000E+00  0.00000000E+00
  0.00000000E+00  0.00000000E+00  0.00000000E+00
  0.00000000E+00  0.00000000E+00  0.00000000E+00
  0.00000000E+00  0.00000000E+00  0.00000000E+00
  0.00000000E+00  0.00000000E+00  0.00000000E+00
  0.00000000E+00  0.00000000E+00  0.00000000E+00
  0.00000000E+00  0.00000000E+00  0.00000000E+00
  0.00000000E+00  0.00000000E+00  0.00000000E+00
  0.00000000E+00  0.00000000E+00  0.00000000E+00
  0.00000000E+00  0.00000000E+00  0.00000000E+00
  0.00000000E+00  0.00000000E+00  0.00000000E+00
  0.00000000E+00  0.00000000E+00  0.00000000E+00
  0.00000000E+00  0.00000000E+00  0.00000000E+00
  0.00000000E+00  0.00000000E+00  0.00000000E+00
  0.00000000E+00  0.00000000E+00  0.00000000E+00
  0.00000000E+00  0.00000000E+00  0.00000000E+00
  0.00000000E+00  0.00000000E+00  0.00000000E+00
  0.00000000E+00  0.00000000E+00  0.00000000E+00
  0.00000000E+00  0.00000000E+00  0.00000000E+00
  0.00000000E+00  0.00000000E+00  0.00000000E+00
  0.00000000E+00  0.00000000E+00  0.00000000E+00
  0.00000000E+00  0.00000000E+00  0.00000000E+00
  0.00000000E+00  0.00000000E+00  0.00000000E+00
  0.00000000E+00  0.00000000E+00  0.00000000E+00
  0.00000000E+00  0.00000000E+00  0.00000000E+00
  0.00000000E+00  0.00000000E+00  0.00000000E+00
  0.00000000E+00  0.00000000E+00  0.00000000E+00
  0.00000000E+00  0.00000000E+00  0.00000000E+00
  0.00000000E+00  0.00000000E+00  0.00000000E+00
  0.00000000E+00  0.00000000E+00  0.00000000E+00
  0.00000000E+00  0.00000000E+00  0.00000000E+00
  0.00000000E+00  0.00000000E+00  0.00000000E+00
  0.00000000E+00  0.00000000E+00  0.00000000E+00
  0.00000000E+00  0.00000000E+00  0.00000000E+00
  0.00000000E+00  0.00000000E+00  0.00000000E+00
  0.00000000E+00  0.00000000E+00  0.00000000E+00
  0.00000000E+00  0.00000000E+00  0.00000000E+00
  0.00000000E+00  0.00000000E+00  0.00000000E+00
  0.00000000E+00  0.00000000E+00  0.00000000E+00
  0.00000000E+00  0.00000000E+00  0.00000000E+00
  0.00000000E+00  0.00000000E+00  0.00000000E+00
  0.00000000E+00  0.00000000E+00  0.00000000E+00
  0.00000000E+00  0.00000000E+00  0.00000000E+00
  0.00000000E+00  0.00000000E+00  0.00000000E+00
  0.00000000E+00  0.00000000E+00  0.00000000E+00
  0.00000000E+00  0.00000000E+00  0.00000000E+00
  0.00000000E+00  0.00000000E+00  0.00000000E+00
  0.00000000E+00  0.00000000E+00  0.00000000E+00
  0.00000000E+00  0.00000000E+00  0.00000000E+00
  0.00000000E+00  0.00000000E+00  0.00000000E+00
  0.00000000E+00  0.00000000E+00  0.00000000E+00
  0.00000000E+00  0.00000000E+00  0.00000000E+00
  0.00000000E+00  0.00000000E+00  0.00000000E+00
  0.00000000E+00  0.00000000E+00  0.00000000E+00
  0.00000000E+00  0.00000000E+00  0.00000000E+00
  0.00000000E+00  0.00000000E+00  0.00000000E+00
  0.00000000E+00  0.00000000E+00  0.00000000E+00
  0.00000000E+00  0.00000000E+00  0.00000000E+00
  0.00000000E+00  0.00000000E+00  0.00000000E+00
