C4                                      
   1.00000000000000     
    17.2710380553999983    0.0000000000000000    0.0000000000000000
    -8.6355190276999991   14.9571577057000002    0.0000000000000000
     0.0000000000000000    0.0000000000000000   15.0000000000000000
  C/253f7b50bb8d  H/030f79b5d3ab  O/818f92134a0a
              88              10               1
Selective dynamics
Direct
  0.9994878173975902  0.9997568943768776  0.5047377396329303   T   T   T
  0.9990294390496214  0.1423620123255253  0.5042002539730022   T   T   T
  0.9988056906494880  0.2851795263080990  0.5040683837882675   T   T   T
  0.9990348552114156  0.4281921968403698  0.5047302814938155   T   T   T
  0.9995041210693295  0.5712653646187974  0.5048657260522816   T   T   T
  0.0004303219111077  0.7144556591656426  0.5045582359739439   T   T   T
  0.0004333001159052  0.8575214481035276  0.5046790698295566   T   T   T
  0.1426427231459002  0.0001228573729310  0.5039396181505635   T   T   T
  0.1421167481446999  0.1427303524248463  0.5040889660227529   T   T   T
  0.1412681147490993  0.2848790646820034  0.5037415429840225   T   T   T
  0.1412471663561304  0.4279396366940311  0.5040277687407598   T   T   T
  0.1421013537798648  0.5709333650476247  0.5045144274309965   T   T   T
  0.1426285733326210  0.7140596580574259  0.5038991987026016   T   T   T
  0.1428176821871498  0.8571813528987771  0.5037334907981141   T   T   T
  0.2852214484719461  0.9996241497856001  0.5037719027141793   T   T   T
  0.2850311747574885  0.1423811543613346  0.5040224919577214   T   T   T
  0.2851771825078211  0.2867680861698611  0.5033128007607066   T   T   T
  0.2830724237249783  0.4272997244233715  0.5025036349915307   T   T   T
  0.2850973621500595  0.5699353348360903  0.5038772390143481   T   T   T
  0.2850275693743004  0.7142090124739268  0.5042201370399180   T   T   T
  0.2852014044007770  0.8571109022938200  0.5037396374543308   T   T   T
  0.4281657703377822  0.9998303809933371  0.5039443618297949   T   T   T
  0.4278627196821125  0.1422385579492993  0.5042705220649467   T   T   T
  0.4261483683067558  0.2818348205525636  0.5051403324293060   T   T   T
  0.4261023695717415  0.7158055362075759  0.5055296881568776   T   T   T
  0.4278661004492160  0.8571329041202679  0.5043473659069949   T   T   T
  0.5708382631850903  0.9999722264215366  0.5040867727398806   T   T   T
  0.5708321715221931  0.1423196913536153  0.5040759004230626   T   T   T
  0.5716227675685231  0.2856223374305529  0.5055215364742301   T   T   T
  0.5716087844264449  0.8574605834722892  0.5055907795694980   T   T   T
  0.7137320236830508  0.9997817037665341  0.5045490428054092   T   T   T
  0.7137841941851280  0.1426163098381888  0.5040470692367366   T   T   T
  0.7137343537666218  0.2854269553891909  0.5047290512931230   T   T   T
  0.7132621077715027  0.4275462188316881  0.5067160567672884   T   T   T
  0.7172209538277238  0.5734056156215658  0.5086480017167708   T   T   T
  0.7171964788510621  0.7152249001032764  0.5086192976596230   T   T   T
  0.7132480075829705  0.8571699181676987  0.5065825442769035   T   T   T
  0.8566388261440528  0.9998506761176778  0.5049349679680115   T   T   T
  0.8562812290680361  0.1424993337911714  0.5042071713353292   T   T   T
  0.8562765246077658  0.2852910015884954  0.5044616458341526   T   T   T
  0.8566326539146021  0.4283007875394929  0.5053932183407513   T   T   T
  0.8571885164690748  0.5716957258673052  0.5060977322728708   T   T   T
  0.8586710624512692  0.7150807861140815  0.5064540116843811   T   T   T
  0.8571363341614112  0.8569526453456278  0.5060420333361164   T   T   T
  0.0469837389537822  0.0949996353344983  0.5042942173177483   T   T   T
  0.0460506008585163  0.2372700023026916  0.5039745955092821   T   T   T
  0.0460545873319520  0.3803275564878243  0.5042303347713273   T   T   T
  0.0469884693836983  0.5235085226971521  0.5047582858215571   T   T   T
  0.0474513728870814  0.6665877520502878  0.5043329248483808   T   T   T
  0.0476887852109087  0.8096132848197429  0.5041898938749396   T   T   T
  0.0474690434760666  0.9524156386540106  0.5043831316243769   T   T   T
  0.1898514337629096  0.0949327268002894  0.5039600389287728   T   T   T
  0.1893528234063453  0.2378082656480328  0.5038301402079901   T   T   T
  0.1878055539793771  0.3796869973223079  0.5035580496704097   T   T   T
  0.1892975093344911  0.5230649724406601  0.5043158449707259   T   T   T
  0.1898446173826794  0.6664659470438925  0.5041515560441644   T   T   T
  0.1902382926889045  0.8094880850578111  0.5036740284946769   T   T   T
  0.1902620021857123  0.9522917666530818  0.5037044367004223   T   T   T
  0.3327791277692716  0.0949769825115479  0.5040871107540892   T   T   T
  0.3332778532717395  0.2376121503613596  0.5041303225789460   T   T   T
  0.3293174743717276  0.3795421142861071  0.5018565186864474   T   T   T
  0.3292253055365160  0.5213010532818089  0.5022329397258106   T   T   T
  0.3332352401087953  0.6671835568222527  0.5046339105188394   T   T   T
  0.3327829391063266  0.8093393113132633  0.5040760744315876   T   T   T
  0.3327625222506618  0.9521438300838747  0.5037577982362086   T   T   T
  0.4756800890007989  0.0947825674839015  0.5040191154734285   T   T   T
  0.4748840688443175  0.2372984734092047  0.5050574143487582   T   T   T
  0.4748624197789815  0.8090674593217470  0.5052120532203065   T   T   T
  0.4756872688992964  0.9523923228996577  0.5040841385232052   T   T   T
  0.6183831828851808  0.0949179957219402  0.5039375444449654   T   T   T
  0.6186482012019155  0.2375859585284202  0.5046199942239450   T   T   T
  0.6204038017577067  0.3788923275008499  0.5068481023273471   T   T   T
  0.6203704533591212  0.8129626942422391  0.5069419784106743   T   T   T
  0.6186511023277678  0.9525196955192080  0.5045633495791935   T   T   T
  0.7613323000105551  0.0951419407220246  0.5042309965861987   T   T   T
  0.7613202177459750  0.2376641587913912  0.5043250913082006   T   T   T
  0.7614842097066346  0.3805655728976424  0.5055501999240545   T   T   T
  0.7613834828212328  0.5247975243210365  0.5073497267369623   T   T   T
  0.7634085949961558  0.6674187371768359  0.5080431651713291   T   T   T
  0.7613334445165192  0.8080084514840699  0.5072712536625302   T   T   T
  0.7614706619635441  0.9523879822904097  0.5052460876390553   T   T   T
  0.9038533413664696  0.0946604528297258  0.5043672379585460   T   T   T
  0.9036986950731603  0.2376105996814554  0.5041967249604571   T   T   T
  0.9038620756941463  0.3807192558247411  0.5048906540933908   T   T   T
  0.9043725142378362  0.5238354687073842  0.5054244588683763   T   T   T
  0.9052408002213287  0.6668308626224385  0.5056947252230516   T   T   T
  0.9052207150639665  0.8099078555876568  0.5057468919425446   T   T   T
  0.9043379798528600  0.9520371175417333  0.5052072469797705   T   T   T
  0.4621033039890992  0.3543487454137085  0.5060412361694244   T   T   T
  0.4019370325547785  0.4190550219458655  0.4994557675241517   T   T   T
  0.4018581787350768  0.5544697699738306  0.5000974996789965   T   T   T
  0.6445341863139806  0.6757269685274999  0.5096153934930735   T   T   T
  0.6445710473372501  0.5402261820621952  0.5096494874053730   T   T   T
  0.5843190146502235  0.4153214296357297  0.5083581730580226   T   T   T
  0.5842978760809410  0.7404569616517475  0.5085349900220623   T   T   T
  0.4620715918746602  0.6792712797168534  0.5066244605344751   T   T   T
  0.5442455555566679  0.5995254573627620  0.3593824841449415   T   T   T
  0.5484663633175256  0.5128640440369712  0.3596147018827554   T   T   T
  0.5283034519854632  0.5465984307511333  0.3950410700556284   T   T   T
 
  0.00000000E+00  0.00000000E+00  0.00000000E+00
  0.00000000E+00  0.00000000E+00  0.00000000E+00
  0.00000000E+00  0.00000000E+00  0.00000000E+00
  0.00000000E+00  0.00000000E+00  0.00000000E+00
  0.00000000E+00  0.00000000E+00  0.00000000E+00
  0.00000000E+00  0.00000000E+00  0.00000000E+00
  0.00000000E+00  0.00000000E+00  0.00000000E+00
  0.00000000E+00  0.00000000E+00  0.00000000E+00
  0.00000000E+00  0.00000000E+00  0.00000000E+00
  0.00000000E+00  0.00000000E+00  0.00000000E+00
  0.00000000E+00  0.00000000E+00  0.00000000E+00
  0.00000000E+00  0.00000000E+00  0.00000000E+00
  0.00000000E+00  0.00000000E+00  0.00000000E+00
  0.00000000E+00  0.00000000E+00  0.00000000E+00
  0.00000000E+00  0.00000000E+00  0.00000000E+00
  0.00000000E+00  0.00000000E+00  0.00000000E+00
  0.00000000E+00  0.00000000E+00  0.00000000E+00
  0.00000000E+00  0.00000000E+00  0.00000000E+00
  0.00000000E+00  0.00000000E+00  0.00000000E+00
  0.00000000E+00  0.00000000E+00  0.00000000E+00
  0.00000000E+00  0.00000000E+00  0.00000000E+00
  0.00000000E+00  0.00000000E+00  0.00000000E+00
  0.00000000E+00  0.00000000E+00  0.00000000E+00
  0.00000000E+00  0.00000000E+00  0.00000000E+00
  0.00000000E+00  0.00000000E+00  0.00000000E+00
  0.00000000E+00  0.00000000E+00  0.00000000E+00
  0.00000000E+00  0.00000000E+00  0.00000000E+00
  0.00000000E+00  0.00000000E+00  0.00000000E+00
  0.00000000E+00  0.00000000E+00  0.00000000E+00
  0.00000000E+00  0.00000000E+00  0.00000000E+00
  0.00000000E+00  0.00000000E+00  0.00000000E+00
  0.00000000E+00  0.00000000E+00  0.00000000E+00
  0.00000000E+00  0.00000000E+00  0.00000000E+00
  0.00000000E+00  0.00000000E+00  0.00000000E+00
  0.00000000E+00  0.00000000E+00  0.00000000E+00
  0.00000000E+00  0.00000000E+00  0.00000000E+00
  0.00000000E+00  0.00000000E+00  0.00000000E+00
  0.00000000E+00  0.00000000E+00  0.00000000E+00
  0.00000000E+00  0.00000000E+00  0.00000000E+00
  0.00000000E+00  0.00000000E+00  0.00000000E+00
  0.00000000E+00  0.00000000E+00  0.00000000E+00
  0.00000000E+00  0.00000000E+00  0.00000000E+00
  0.00000000E+00  0.00000000E+00  0.00000000E+00
  0.00000000E+00  0.00000000E+00  0.00000000E+00
  0.00000000E+00  0.00000000E+00  0.00000000E+00
  0.00000000E+00  0.00000000E+00  0.00000000E+00
  0.00000000E+00  0.00000000E+00  0.00000000E+00
  0.00000000E+00  0.00000000E+00  0.00000000E+00
  0.00000000E+00  0.00000000E+00  0.00000000E+00
  0.00000000E+00  0.00000000E+00  0.00000000E+00
  0.00000000E+00  0.00000000E+00  0.00000000E+00
  0.00000000E+00  0.00000000E+00  0.00000000E+00
  0.00000000E+00  0.00000000E+00  0.00000000E+00
  0.00000000E+00  0.00000000E+00  0.00000000E+00
  0.00000000E+00  0.00000000E+00  0.00000000E+00
  0.00000000E+00  0.00000000E+00  0.00000000E+00
  0.00000000E+00  0.00000000E+00  0.00000000E+00
  0.00000000E+00  0.00000000E+00  0.00000000E+00
  0.00000000E+00  0.00000000E+00  0.00000000E+00
  0.00000000E+00  0.00000000E+00  0.00000000E+00
  0.00000000E+00  0.00000000E+00  0.00000000E+00
  0.00000000E+00  0.00000000E+00  0.00000000E+00
  0.00000000E+00  0.00000000E+00  0.00000000E+00
  0.00000000E+00  0.00000000E+00  0.00000000E+00
  0.00000000E+00  0.00000000E+00  0.00000000E+00
  0.00000000E+00  0.00000000E+00  0.00000000E+00
  0.00000000E+00  0.00000000E+00  0.00000000E+00
  0.00000000E+00  0.00000000E+00  0.00000000E+00
  0.00000000E+00  0.00000000E+00  0.00000000E+00
  0.00000000E+00  0.00000000E+00  0.00000000E+00
  0.00000000E+00  0.00000000E+00  0.00000000E+00
  0.00000000E+00  0.00000000E+00  0.00000000E+00
  0.00000000E+00  0.00000000E+00  0.00000000E+00
  0.00000000E+00  0.00000000E+00  0.00000000E+00
  0.00000000E+00  0.00000000E+00  0.00000000E+00
  0.00000000E+00  0.00000000E+00  0.00000000E+00
  0.00000000E+00  0.00000000E+00  0.00000000E+00
  0.00000000E+00  0.00000000E+00  0.00000000E+00
  0.00000000E+00  0.00000000E+00  0.00000000E+00
  0.00000000E+00  0.00000000E+00  0.00000000E+00
  0.00000000E+00  0.00000000E+00  0.00000000E+00
  0.00000000E+00  0.00000000E+00  0.00000000E+00
  0.00000000E+00  0.00000000E+00  0.00000000E+00
  0.00000000E+00  0.00000000E+00  0.00000000E+00
  0.00000000E+00  0.00000000E+00  0.00000000E+00
  0.00000000E+00  0.00000000E+00  0.00000000E+00
  0.00000000E+00  0.00000000E+00  0.00000000E+00
  0.00000000E+00  0.00000000E+00  0.00000000E+00
  0.00000000E+00  0.00000000E+00  0.00000000E+00
  0.00000000E+00  0.00000000E+00  0.00000000E+00
  0.00000000E+00  0.00000000E+00  0.00000000E+00
  0.00000000E+00  0.00000000E+00  0.00000000E+00
  0.00000000E+00  0.00000000E+00  0.00000000E+00
  0.00000000E+00  0.00000000E+00  0.00000000E+00
  0.00000000E+00  0.00000000E+00  0.00000000E+00
  0.00000000E+00  0.00000000E+00  0.00000000E+00
  0.00000000E+00  0.00000000E+00  0.00000000E+00
  0.00000000E+00  0.00000000E+00  0.00000000E+00
  0.00000000E+00  0.00000000E+00  0.00000000E+00
