C    H    N    O 
    1.000000000000000     
  17.2710380553999983   0.0000000000000000   0.0000000000000000
  -8.6355190276999991  14.9571577057000002   0.0000000000000000
   0.0000000000000000   0.0000000000000000  15.0000000000000000
C    H    N    O 
86  8  2  1  
Selective dynamics
Direct
  0.9998083476183004  0.9997967952265792  0.5009073085815380 T T T
  0.9997860234713202  0.1425700062821778  0.5006141212308666 T T T
  0.0000113464453054  0.2856280017649779  0.5003981828793814 T T T
  0.9999715895802620  0.4285530463950660  0.5001859412241347 T T T
  0.9998033665829604  0.5712414163790095  0.5003069337213297 T T T
  0.0000367586023694  0.7139867554449252  0.5006489844691160 T T T
  0.0002435131234418  0.8572889085287382  0.5007548946985502 T T T
  0.1433771744426843  0.0009063912779019  0.5002699592413377 T T T
  0.1433115090494954  0.1436320154139540  0.5004532575859849 T T T
  0.1429005882561982  0.2861329689649638  0.5003841319000475 T T T
  0.1430883967389334  0.4294682804502953  0.5002032649948596 T T T
  0.1431451878774165  0.5717899174024381  0.5000726373136537 T T T
  0.1429610136792755  0.7144639666586394  0.5001100313250137 T T T
  0.1429495258992998  0.8576676961737975  0.5001027087577439 T T T
  0.2862156667910146  0.0009957511521400  0.4993895167124662 T T T
  0.2869461539238403  0.1442295989784981  0.4996366912266894 T T T
  0.2870223705877959  0.2883807292074003  0.4998334261325629 T T T
  0.2854914195107471  0.4296876581020326  0.4997809292026343 T T T
  0.2878577973453703  0.5728379763393168  0.4996393048403169 T T T
  0.2860006520520984  0.7155463597278134  0.4996336671973345 T T T
  0.2853213200595399  0.8580778200522301  0.4993870674234946 T T T
  0.4287976477389736  0.0004978288500825  0.4987713591856066 T T T
  0.4299969405255327  0.1441666470688076  0.4987467828986489 T T T
  0.4293883895101646  0.2847041803525691  0.4991734093624124 T T T
  0.4275362218477090  0.8571765277669954  0.4991303738507047 T T T
  0.5709420643303549  0.9996200415585760  0.4991233118718651 T T T
  0.5717513137890349  0.1426653741943890  0.4986940587651436 T T T
  0.5755566943549534  0.2887358295816927  0.4985188805402559 T T T
  0.5697690798931563  0.8554414671177976  0.4995754551987730 T T T
  0.7131138886689414  0.9984945716501994  0.4999827313365318 T T T
  0.7143172884203560  0.1420234379673105  0.4994017055457322 T T T
  0.7148541186254439  0.2848169633339497  0.4990508099087781 T T T
  0.7107105515664461  0.4241507099994440  0.4991036597233498 T T T
  0.7153447926384791  0.5708599209439557  0.5001845858551969 T T T
  0.7162042421386661  0.7137198551008420  0.5003117988796574 T T T
  0.7117202797363030  0.8553313548428892  0.5003620151158031 T T T
  0.8563662884023691  0.9990400462774164  0.5006445202722276 T T T
  0.8566912299744318  0.1420459590876630  0.5002747988434777 T T T
  0.8572708128506856  0.2851471845896399  0.4997960729641706 T T T
  0.8569734147079212  0.4279397675397654  0.4997274436799565 T T T
  0.8561245154831464  0.5701549692344370  0.5001311080598229 T T T
  0.8577088657578730  0.7137739324761901  0.5007152674993381 T T T
  0.8566421706781264  0.8561174657576011  0.5009269051819200 T T T
  0.0478114183576061  0.0953230764081889  0.5007240722655878 T T T
  0.0473295280835615  0.2378376923975819  0.5004953771008577 T T T
  0.0474713429937947  0.3811040336704465  0.5003249548107714 T T T
  0.0477672274591023  0.5239185332631177  0.5002286662019405 T T T
  0.0475822595232957  0.6665962798182116  0.5004368304693404 T T T
  0.0475255343661427  0.8094607459484277  0.5005403381706193 T T T
  0.0478307225497588  0.9525579224686646  0.5007063863799258 T T T
  0.1912830593389153  0.0960929234017762  0.5001396075645489 T T T
  0.1909506670571602  0.2389954109959933  0.5003173400657049 T T T
  0.1898268021518233  0.3813667270963962  0.5001779208244131 T T T
  0.1914095867447028  0.5250100255804216  0.4999075364007897 T T T
  0.1906298628024409  0.6671991111625039  0.4999545344711304 T T T
  0.1903563729910030  0.8100265754221375  0.4998606836668525 T T T
  0.1909529683045198  0.9531182257035126  0.4999371954795431 T T T
  0.3345599261318226  0.0967093186196231  0.4992230176327768 T T T
  0.3359113216061029  0.2398574935284619  0.4995521902922170 T T T
  0.3313089034314941  0.3813550184671645  0.4994006935832578 T T T
  0.3321670770767729  0.5243132290022078  0.4997998094246350 T T T
  0.3369177721096309  0.6710675700088027  0.4994264416105366 T T T
  0.3327785939818372  0.8103658567394780  0.4993389964956040 T T T
  0.3333431147905930  0.9531579766740680  0.4990763494334862 T T T
  0.4767223675536210  0.0956251025777346  0.4986456423188030 T T T
  0.4778556454460096  0.2398207378786081  0.4986983721805970 T T T
  0.4720849197378263  0.8064994665353559  0.4992151450733385 T T T
  0.4759207689474162  0.9525632068029914  0.4989303495518799 T T T
  0.6188876581258741  0.0947364405570234  0.4990273657475740 T T T
  0.6200869290223364  0.2380583527758760  0.4986957311306907 T T T
  0.6182388856816704  0.8105574554730303  0.5000932743026627 T T T
  0.6176855481233197  0.9510840884966534  0.4995601636973245 T T T
  0.7614738828612586  0.0941962495040843  0.4999191884603780 T T T
  0.7623210337125738  0.2370969618707346  0.4994056607799030 T T T
  0.7616141116142429  0.3796429696569474  0.4993115992674086 T T T
  0.7596689054560581  0.5223651417129526  0.4997612768824264 T T T
  0.7620877780318532  0.6654724293380391  0.5004789835731418 T T T
  0.7605345684555939  0.8067346838966910  0.5006606887766193 T T T
  0.7606688318824466  0.9509456690478764  0.5003595289767492 T T T
  0.9042290785850636  0.0942164259383252  0.5005422111498377 T T T
  0.9046476455361298  0.2374709317273809  0.5001841476192572 T T T
  0.9046197444925388  0.3806641813481922  0.4998864605795851 T T T
  0.9043859061946892  0.5233653999073576  0.5000504507032195 T T T
  0.9044165675837338  0.6656435374464000  0.5006360429386407 T T T
  0.9046726166337756  0.8089781606430737  0.5009092056941229 T T T
  0.9043026813436544  0.9514756894890578  0.5009154154526494 T T T
  0.4683109359268613  0.3573591564019064  0.4993728882616321 T T T
  0.4039813816323345  0.4202858212791301  0.4974771524659816 T T T
  0.4050376104952657  0.5603779408235476  0.5003062526238569 T T T
  0.6435343141512296  0.6749037844968544  0.4985379196973658 T T T
  0.6424943325195726  0.5348051168075026  0.5005367374563728 T T T
  0.5791889474386972  0.7379181931737673  0.5003352087225693 T T T
  0.4925797000294176  0.5673703954207273  0.3562675449278959 T T T
  0.5543579429914178  0.5265457826721643  0.3557566670627842 T T T
  0.4269359072616807  0.7160812473252247  0.4990477950663552 T T T
  0.6206853517577982  0.3791401112050917  0.4984450073273523 T T T
  0.5231954806452090  0.5464276061773911  0.3953361829999977 T T F
