C    H    F    O 
    1.000000000000000     
  17.2710380553999983   0.0000000000000000   0.0000000000000000
  -8.6355190276999991  14.9571577057000002   0.0000000000000000
   0.0000000000000000   0.0000000000000000  15.0000000000000000
C    H    F    O 
88  8  2  1  
Selective dynamics
Direct
  0.9998858098757960  0.0007740466572614  0.4963266887036587 T T T
  0.9996427728833448  0.1435748080100596  0.4970254916445533 T T T
  0.9998603855628632  0.2867304711681638  0.4975188126307206 T T T
  0.0004615268757425  0.4299187033559597  0.4975558360236825 T T T
  0.0012234702109742  0.5729593503870311  0.4974004104537952 T T T
  0.0019070464119605  0.7160788060452632  0.4967397552095584 T T T
  0.0012835812280306  0.8589101753283098  0.4961356492039716 T T T
  0.1433572531267914  0.0014646267195328  0.4971919936370476 T T T
  0.1425306489976327  0.1436681069530429  0.4958958020515999 T T T
  0.1418045238230405  0.2858368433139432  0.4947168263048962 T T T
  0.1425322448534890  0.4295337062005022  0.4950244106904912 T T T
  0.1440053751495965  0.5727228132727104  0.4972209178205075 T T T
  0.1440897338517405  0.7157921434147451  0.4989694584118118 T T T
  0.1438520813574848  0.8588008092027525  0.4988115852139665 T T T
  0.2861482165675688  0.0014135760529047  0.4991318685549445 T T T
  0.2857622242071406  0.1438035844228319  0.4959982443929436 T T T
  0.2853277367406735  0.2872922369188519  0.4916074750522942 T T T
  0.2831869170070049  0.4270081097009976  0.4878842686224455 T T T
  0.2875066773401007  0.5726317454689364  0.4920376802006355 T T T
  0.2865440411903466  0.7162005591972189  0.4981770715777248 T T T
  0.2862743816159985  0.8590292447496286  0.5004750657144496 T T T
  0.4291671893584237  0.0022120386222455  0.5005734169767065 T T T
  0.4288522408842551  0.1443795332756812  0.4982090648249399 T T T
  0.4269886734060830  0.2838396513516814  0.4960139655135907 T T T
  0.4283051909695622  0.7194499678194894  0.4969455302202104 T T T
  0.4289543786020507  0.8599383558003755  0.5006033163944416 T T T
  0.5719003758062193  0.0026222828672388  0.5007313241730494 T T T
  0.5718872159719314  0.1446727672274719  0.4996633735239044 T T T
  0.5727877958927432  0.2879290093500768  0.4976792569223186 T T T
  0.5726122525752396  0.8606617921582057  0.4993050204883526 T T T
  0.7147423225567165  0.0018046672009605  0.4987077857285703 T T T
  0.7148867405153263  0.1446886757013358  0.4999677726265850 T T T
  0.7148800013909137  0.2873215375834733  0.4982306445383452 T T T
  0.7146470954868291  0.4292629786196983  0.4942678484915615 T T T
  0.7189233220021203  0.5744413618274885  0.4844944199135079 T T T
  0.7204490804100299  0.7168465100269394  0.4830768129194105 T T T
  0.7132518209975920  0.8584996046922460  0.4938106502388385 T T T
  0.8571670362121688  0.0011129544689126  0.4961751042469820 T T T
  0.8572747648583854  0.1441568259071695  0.4985474758376977 T T T
  0.8574728525568498  0.2870322246548805  0.4986341813838794 T T T
  0.8580721156257046  0.4299730614841919  0.4965832193090736 T T T
  0.8588915032866834  0.5732518663149061  0.4937341489951978 T T T
  0.8603366730254602  0.7165817323251084  0.4914172725700813 T T T
  0.8574673091309960  0.8578406702443169  0.4931528126902225 T T T
  0.0474116976359666  0.0960386244993744  0.4965560716344546 T T T
  0.0467281620166127  0.2385012008440232  0.4968092305203963 T T T
  0.0473513499898673  0.3819653272044873  0.4970543106446623 T T T
  0.0487415916066838  0.5252146484072029  0.4976221185192339 T T T
  0.0489862079078650  0.6682663475178588  0.4979111412254541 T T T
  0.0487801124000657  0.8111848027884032  0.4973196831929771 T T T
  0.0481371311382446  0.9537252186719700  0.4966371132895960 T T T
  0.1905455541492348  0.0962232900010357  0.4962351317313545 T T T
  0.1897113007381366  0.2386734817004171  0.4943098568098435 T T T
  0.1883262937425039  0.3805928310137083  0.4928863597417463 T T T
  0.1911974856202852  0.5247537152999447  0.4950486172685704 T T T
  0.1914964334224850  0.6683086261601425  0.4981995014149420 T T T
  0.1913840295627508  0.8112094937429020  0.4996540129758295 T T T
  0.1911705831016053  0.9538759985620520  0.4984629489463490 T T T
  0.3337215830579356  0.0967528145296202  0.4978482745098336 T T T
  0.3339649351920351  0.2389134748077348  0.4942636440902657 T T T
  0.3297716384262658  0.3798377290752055  0.4863004252269183 T T T
  0.3281255016708377  0.5207531652235914  0.4862603321248126 T T T
  0.3354059648461837  0.6696735684219975  0.4954776599299716 T T T
  0.3339169377659775  0.8114067224763410  0.5001388449186600 T T T
  0.3337748098803366  0.9541210075945398  0.5003875992941198 T T T
  0.4767222229745416  0.0970862020965754  0.4996151583312956 T T T
  0.4758952707860451  0.2394875785889823  0.4975068688614149 T T T
  0.4760997032522510  0.8125092045665441  0.4996184004631158 T T T
  0.4767776361329942  0.9550513345363107  0.5010013599095084 T T T
  0.6194984592602398  0.0973948841211305  0.5003588487420382 T T T
  0.6197781289543964  0.2398492995803899  0.4984409360640492 T T T
  0.6216631121884273  0.3811801905526843  0.4963969872708081 T T T
  0.6203977629844568  0.8153386949961803  0.4967428770051301 T T T
  0.6197221416425405  0.9552825311663760  0.4998342992490554 T T T
  0.7623917179901015  0.0970767803567175  0.4993539493438393 T T T
  0.7625057437180300  0.2396148892072797  0.4992476954282606 T T T
  0.7628181939530437  0.3823307447766766  0.4962247643004403 T T T
  0.7632605925001108  0.5262980018868917  0.4907333985413546 T T T
  0.7655573199565207  0.6681678193118475  0.4855859012522643 T T T
  0.7611891715290644  0.8093568725996571  0.4897519089276651 T T T
  0.7620811727661269  0.9539425203124856  0.4961651654575758 T T T
  0.9045389894424012  0.0960177861255051  0.4974378902881316 T T T
  0.9047799186923944  0.2392670809022134  0.4984692471775492 T T T
  0.9052372957735068  0.3823978673574869  0.4977674404672746 T T T
  0.9060921926715926  0.5254487202735054  0.4961083648023627 T T T
  0.9068513377718193  0.6683574449204571  0.4939735849670489 T T T
  0.9061311017767210  0.8113116735768001  0.4935500543541389 T T T
  0.9046270411701950  0.9529890521632416  0.4955217469142406 T T T
  0.4629742651306846  0.3563445569063239  0.4975126459390868 T T T
  0.4020872299462241  0.4180969820921686  0.4818324761801575 T T T
  0.6466077915268551  0.5406192529822567  0.4810934731998632 T T T
  0.5859160593268404  0.4178901047328560  0.4985086105686520 T T T
  0.5834978227435722  0.7434221779745783  0.4964044159104620 T T T
  0.4654572627891166  0.6847521767187419  0.4952984525873170 T T T
  0.5109019466456929  0.5422581410853589  0.5811184283347987 T T T
  0.4808732489678655  0.4655743000081990  0.6490416239746846 T T T
  0.4196620093165594  0.5593275526337672  0.4796482591375069 T T T
  0.6294520673419691  0.6644009904505577  0.4740874376170090 T T T
  0.5265177401056169  0.4992972528319874  0.6046639079999991 T T F
