C4                                      
    1.000000000000000     
    17.2710380553999983    0.0000000000000000    0.0000000000000000
    -8.6355190276999991   14.9571577057000002    0.0000000000000000
     0.0000000000000000    0.0000000000000000   15.0000000000000000
   C    F    N    H    O 
    84     4     4     2     1
Selective dynamics
Direct
  0.0006844666863805  0.0002286930988544  0.4976670778987904   T   T   T
  0.9993475127330897  0.1420792571851685  0.4983632563119118   T   T   T
  0.9994256272511132  0.2853366171039960  0.4984170743308197   T   T   T
  0.0000678041981318  0.4285844341403871  0.4976594883729051   T   T   T
  0.0004237666593477  0.5716947989586051  0.4969367800652310   T   T   T
  0.0013553583692727  0.7147685620612562  0.4969047327669915   T   T   T
  0.0024724452519314  0.8585685524073154  0.4974328320339061   T   T   T
  0.1447335506201669  0.0020082762758449  0.4965892909114752   T   T   T
  0.1433837851790944  0.1438854589588580  0.4957776929636178   T   T   T
  0.1413050850758779  0.2851127872520267  0.4947349005928354   T   T   T
  0.1425769927174159  0.4289200168317481  0.4934672248154828   T   T   T
  0.1436818612555451  0.5716071264716398  0.4941676764576597   T   T   T
  0.1437500678246334  0.7148518472192077  0.4954173406972542   T   T   T
  0.1443631480671276  0.8584681886818141  0.4966961847873365   T   T   T
  0.2872655518894046  0.0022282814852909  0.4956415708241403   T   T   T
  0.2875771990666433  0.1460771700425665  0.4940775626850679   T   T   T
  0.2858622973217617  0.2909491573877652  0.4892243715841846   T   T   T
  0.2828979559470956  0.4243199571658997  0.4825315667595215   T   T   T
  0.2879860864334455  0.5717171647173538  0.4829884855688136   T   T   T
  0.2859158922348282  0.7151351614581484  0.4903078504851330   T   T   T
  0.2861828146687455  0.8585234041150510  0.4944473195548723   T   T   T
  0.4293895761159549  0.0011264182013527  0.4945437263079461   T   T   T
  0.4306417972920551  0.1456045369666259  0.4945707392530765   T   T   T
  0.4288857263925682  0.2854778261663210  0.4924897696777492   T   T   T
  0.4278910504458875  0.8573008137778997  0.4917308140872357   T   T   T
  0.5712970132385244  0.9990089285740914  0.4946985838612777   T   T   T
  0.5722403680946903  0.1427474779226046  0.4957182128081857   T   T   T
  0.5766645234649620  0.2894982188911207  0.4939040016398021   T   T   T
  0.5693309386402758  0.8539598719858829  0.4921626061904927   T   T   T
  0.7133152977494460  0.9973101794095177  0.4963424009045606   T   T   T
  0.7144314866990622  0.1415953206872285  0.4976693483125127   T   T   T
  0.7153673069056569  0.2852533322893537  0.4966816416342065   T   T   T
  0.7118812324951485  0.4252792063187314  0.4925911163245109   T   T   T
  0.7185857808180243  0.5757457657401278  0.4860399130627408   T   T   T
  0.7134459546126058  0.8535130080657203  0.4944861657138560   T   T   T
  0.8565889764492922  0.9984868673177633  0.4974711004362382   T   T   T
  0.8564838637909395  0.1415665628858601  0.4988536927660511   T   T   T
  0.8572055838463927  0.2851157689082451  0.4988202893585150   T   T   T
  0.8576533438447845  0.4285028046151325  0.4970242008028459   T   T   T
  0.8567973289302585  0.5713609074627103  0.4951740792661117   T   T   T
  0.8603304911871080  0.7158344656418725  0.4950890585965475   T   T   T
  0.8587636205352501  0.8567911962626511  0.4962672278307433   T   T   T
  0.0480118597072085  0.0954901411325791  0.4975564895272929   T   T   T
  0.0462403820631781  0.2371759473133838  0.4978101589534858   T   T   T
  0.0472382229936680  0.3808965465849827  0.4971131876234853   T   T   T
  0.0482131366772228  0.5239893760256451  0.4966319530181851   T   T   T
  0.0485302653368689  0.6670987599933259  0.4966134923445403   T   T   T
  0.0492147635441181  0.8103344095101188  0.4971655399454247   T   T   T
  0.0493330422664335  0.9536131013117972  0.4973760972059229   T   T   T
  0.1920349172418661  0.0971759926154262  0.4953992805613762   T   T   T
  0.1898894047045315  0.2389525839819017  0.4935258936220847   T   T   T
  0.1882772181607810  0.3799182640079531  0.4912927795621518   T   T   T
  0.1917281399661494  0.5242978800239648  0.4911513550813727   T   T   T
  0.1909164968620057  0.6671169234040916  0.4932199344765036   T   T   T
  0.1914085257535594  0.8104860776063254  0.4955773239184881   T   T   T
  0.1921193584066265  0.9540392503017775  0.4964329174481861   T   T   T
  0.3351979985135314  0.0981816345090081  0.4948789749578533   T   T   T
  0.3350804602232347  0.2420627797099499  0.4918685805681987   T   T   T
  0.3291830378785671  0.5197080015600561  0.4733965931590670   T   T   T
  0.3365792912963123  0.6702914398061557  0.4852415173652824   T   T   T
  0.3331822007581290  0.8102493193435251  0.4921148030949926   T   T   T
  0.3341155900885397  0.9538589972538558  0.4950074540179182   T   T   T
  0.4772500221531460  0.0964271459265381  0.4949955283852210   T   T   T
  0.4791525034575292  0.2414141021368242  0.4937609572857143   T   T   T
  0.4718466389846177  0.8059365864899805  0.4896167608900538   T   T   T
  0.4763023631260869  0.9526768955437760  0.4936653567120972   T   T   T
  0.6191550102220933  0.0943020979708135  0.4962073259577685   T   T   T
  0.6206544657927806  0.2381612666668959  0.4956553744073992   T   T   T
  0.6195966107538931  0.8099085749394777  0.4927795243441390   T   T   T
  0.6178651371081790  0.9497927821179245  0.4944520633803454   T   T   T
  0.7613123858451735  0.0932718639378548  0.4978732459379823   T   T   T
  0.7623845204064629  0.2369690124020715  0.4981135289856292   T   T   T
  0.7626020215854447  0.3804226168038752  0.4957246839800757   T   T   T
  0.7602425841844584  0.5238361668309663  0.4912676770076392   T   T   T
  0.7654952280538254  0.6713294910881481  0.4908972283751004   T   T   T
  0.7627333872620941  0.8047491342440466  0.4940213052224833   T   T   T
  0.7609904286027022  0.9494969179213544  0.4961763527371486   T   T   T
  0.9039110265330214  0.0936694941022932  0.4985295432832209   T   T   T
  0.9042679489778637  0.2371505318672001  0.4991968169766957   T   T   T
  0.9048441226017576  0.3807686059422902  0.4982540910381476   T   T   T
  0.9049015606578225  0.5240543328973434  0.4967695669365709   T   T   T
  0.9059778004414238  0.6667674518581140  0.4958244496520882   T   T   T
  0.9073957683252105  0.8106559899984843  0.4966001742508218   T   T   T
  0.9052872752853461  0.9518440493547207  0.4973685171850216   T   T   T
  0.4738313894318286  0.3748411598734900  0.4921007234966329   T   T   T
  0.4160394890704672  0.5584836148268192  0.4529314266980727   T   T   T
  0.6301356642553897  0.5367304854594745  0.4749305055332670   T   T   T
  0.5746599772946740  0.7205107817181761  0.4917452414990175   T   T   T
  0.4260022547359895  0.7158950270963005  0.4852284528264823   T   T   T
  0.7189865895260874  0.7152693186258987  0.4907230127278535   T   T   T
  0.3293946136904745  0.3802877590338457  0.4820759946156616   T   T   T
  0.6224803221997837  0.3795872525168004  0.4919521604366551   T   T   T
  0.5454357090877120  0.5928893149487885  0.5685932300875077   T   T   T
  0.4776946306437337  0.4927905580478529  0.5618329151331585   T   T   T
  0.5051122752604754  0.5415560897061091  0.6046639079999991   T   T   F
 
  0.00000000E+00  0.00000000E+00  0.00000000E+00
  0.00000000E+00  0.00000000E+00  0.00000000E+00
  0.00000000E+00  0.00000000E+00  0.00000000E+00
  0.00000000E+00  0.00000000E+00  0.00000000E+00
  0.00000000E+00  0.00000000E+00  0.00000000E+00
  0.00000000E+00  0.00000000E+00  0.00000000E+00
  0.00000000E+00  0.00000000E+00  0.00000000E+00
  0.00000000E+00  0.00000000E+00  0.00000000E+00
  0.00000000E+00  0.00000000E+00  0.00000000E+00
  0.00000000E+00  0.00000000E+00  0.00000000E+00
  0.00000000E+00  0.00000000E+00  0.00000000E+00
  0.00000000E+00  0.00000000E+00  0.00000000E+00
  0.00000000E+00  0.00000000E+00  0.00000000E+00
  0.00000000E+00  0.00000000E+00  0.00000000E+00
  0.00000000E+00  0.00000000E+00  0.00000000E+00
  0.00000000E+00  0.00000000E+00  0.00000000E+00
  0.00000000E+00  0.00000000E+00  0.00000000E+00
  0.00000000E+00  0.00000000E+00  0.00000000E+00
  0.00000000E+00  0.00000000E+00  0.00000000E+00
  0.00000000E+00  0.00000000E+00  0.00000000E+00
  0.00000000E+00  0.00000000E+00  0.00000000E+00
  0.00000000E+00  0.00000000E+00  0.00000000E+00
  0.00000000E+00  0.00000000E+00  0.00000000E+00
  0.00000000E+00  0.00000000E+00  0.00000000E+00
  0.00000000E+00  0.00000000E+00  0.00000000E+00
  0.00000000E+00  0.00000000E+00  0.00000000E+00
  0.00000000E+00  0.00000000E+00  0.00000000E+00
  0.00000000E+00  0.00000000E+00  0.00000000E+00
  0.00000000E+00  0.00000000E+00  0.00000000E+00
  0.00000000E+00  0.00000000E+00  0.00000000E+00
  0.00000000E+00  0.00000000E+00  0.00000000E+00
  0.00000000E+00  0.00000000E+00  0.00000000E+00
  0.00000000E+00  0.00000000E+00  0.00000000E+00
  0.00000000E+00  0.00000000E+00  0.00000000E+00
  0.00000000E+00  0.00000000E+00  0.00000000E+00
  0.00000000E+00  0.00000000E+00  0.00000000E+00
  0.00000000E+00  0.00000000E+00  0.00000000E+00
  0.00000000E+00  0.00000000E+00  0.00000000E+00
  0.00000000E+00  0.00000000E+00  0.00000000E+00
  0.00000000E+00  0.00000000E+00  0.00000000E+00
  0.00000000E+00  0.00000000E+00  0.00000000E+00
  0.00000000E+00  0.00000000E+00  0.00000000E+00
  0.00000000E+00  0.00000000E+00  0.00000000E+00
  0.00000000E+00  0.00000000E+00  0.00000000E+00
  0.00000000E+00  0.00000000E+00  0.00000000E+00
  0.00000000E+00  0.00000000E+00  0.00000000E+00
  0.00000000E+00  0.00000000E+00  0.00000000E+00
  0.00000000E+00  0.00000000E+00  0.00000000E+00
  0.00000000E+00  0.00000000E+00  0.00000000E+00
  0.00000000E+00  0.00000000E+00  0.00000000E+00
  0.00000000E+00  0.00000000E+00  0.00000000E+00
  0.00000000E+00  0.00000000E+00  0.00000000E+00
  0.00000000E+00  0.00000000E+00  0.00000000E+00
  0.00000000E+00  0.00000000E+00  0.00000000E+00
  0.00000000E+00  0.00000000E+00  0.00000000E+00
  0.00000000E+00  0.00000000E+00  0.00000000E+00
  0.00000000E+00  0.00000000E+00  0.00000000E+00
  0.00000000E+00  0.00000000E+00  0.00000000E+00
  0.00000000E+00  0.00000000E+00  0.00000000E+00
  0.00000000E+00  0.00000000E+00  0.00000000E+00
  0.00000000E+00  0.00000000E+00  0.00000000E+00
  0.00000000E+00  0.00000000E+00  0.00000000E+00
  0.00000000E+00  0.00000000E+00  0.00000000E+00
  0.00000000E+00  0.00000000E+00  0.00000000E+00
  0.00000000E+00  0.00000000E+00  0.00000000E+00
  0.00000000E+00  0.00000000E+00  0.00000000E+00
  0.00000000E+00  0.00000000E+00  0.00000000E+00
  0.00000000E+00  0.00000000E+00  0.00000000E+00
  0.00000000E+00  0.00000000E+00  0.00000000E+00
  0.00000000E+00  0.00000000E+00  0.00000000E+00
  0.00000000E+00  0.00000000E+00  0.00000000E+00
  0.00000000E+00  0.00000000E+00  0.00000000E+00
  0.00000000E+00  0.00000000E+00  0.00000000E+00
  0.00000000E+00  0.00000000E+00  0.00000000E+00
  0.00000000E+00  0.00000000E+00  0.00000000E+00
  0.00000000E+00  0.00000000E+00  0.00000000E+00
  0.00000000E+00  0.00000000E+00  0.00000000E+00
  0.00000000E+00  0.00000000E+00  0.00000000E+00
  0.00000000E+00  0.00000000E+00  0.00000000E+00
  0.00000000E+00  0.00000000E+00  0.00000000E+00
  0.00000000E+00  0.00000000E+00  0.00000000E+00
  0.00000000E+00  0.00000000E+00  0.00000000E+00
  0.00000000E+00  0.00000000E+00  0.00000000E+00
  0.00000000E+00  0.00000000E+00  0.00000000E+00
  0.00000000E+00  0.00000000E+00  0.00000000E+00
  0.00000000E+00  0.00000000E+00  0.00000000E+00
  0.00000000E+00  0.00000000E+00  0.00000000E+00
  0.00000000E+00  0.00000000E+00  0.00000000E+00
  0.00000000E+00  0.00000000E+00  0.00000000E+00
  0.00000000E+00  0.00000000E+00  0.00000000E+00
  0.00000000E+00  0.00000000E+00  0.00000000E+00
  0.00000000E+00  0.00000000E+00  0.00000000E+00
  0.00000000E+00  0.00000000E+00  0.00000000E+00
  0.00000000E+00  0.00000000E+00  0.00000000E+00
  0.00000000E+00  0.00000000E+00  0.00000000E+00
