C    H    N    O                        
   1.00000000000000     
    17.2710380553999983    0.0000000000000000    0.0000000000000000
    -8.6355190276999991   14.9571577057000002    0.0000000000000000
     0.0000000000000000    0.0000000000000000   15.0000000000000000
  C/253f7b50bb8d  H/030f79b5d3ab  N/e053789ff3a6  O/818f92134a0a
              84               6               4               1
Selective dynamics
Direct
  0.0014175262738902  0.0006391548205116  0.5004475439229807   T   T   T
  0.0008807472278676  0.1430986220831301  0.5002112875797167   T   T   T
  0.0005295067504392  0.2859409504768067  0.5000171445570061   T   T   T
  0.0008823365912463  0.4291278983785816  0.5000566698852396   T   T   T
  0.0013867910763778  0.5721032890695170  0.5002210846914963   T   T   T
  0.0017729375217144  0.7149662467098850  0.5003153415669104   T   T   T
  0.0017969717728192  0.8582054273830764  0.5003739565756646   T   T   T
  0.1452029593461077  0.0018147694936275  0.4999383453226613   T   T   T
  0.1447358104539660  0.1444924490303592  0.4997349859760263   T   T   T
  0.1428551582830693  0.2859288987720348  0.4993922848703747   T   T   T
  0.1428354632309023  0.4282945765132524  0.4993702720133797   T   T   T
  0.1447388550074891  0.5715871134119013  0.4995609096254938   T   T   T
  0.1451778594822457  0.7147217925073619  0.4998633049840890   T   T   T
  0.1451070430692241  0.8582372522514845  0.5000287336049354   T   T   T
  0.2880824567891196  0.0018567044027407  0.4997006722722830   T   T   T
  0.2883675602038593  0.1465401040329439  0.4992553991702806   T   T   T
  0.2876099829853160  0.2926532262946111  0.4983978799558670   T   T   T
  0.2853966524981217  0.4283820856578799  0.4978377867237285   T   T   T
  0.2876475819672351  0.5663403498867794  0.4983793786889592   T   T   T
  0.2883841860467342  0.7132469385444722  0.4992205076650293   T   T   T
  0.2880836490171603  0.8576362349166047  0.4997750888140260   T   T   T
  0.4306121598693622  0.0009920017442724  0.4996997007253299   T   T   T
  0.4312554555720354  0.1456378600520409  0.4995841210901446   T   T   T
  0.4304875940436972  0.2872390185905331  0.4995472932554321   T   T   T
  0.4304685362384859  0.7146011627656108  0.4995415170216617   T   T   T
  0.4312912206252690  0.8570169177247635  0.4995861854368400   T   T   T
  0.5729196950620548  0.0005524294546362  0.4999270260871000   T   T   T
  0.5729102389349592  0.1437249395062423  0.4999632164742280   T   T   T
  0.5765916520908902  0.2902345975355161  0.5000478421644630   T   T   T
  0.5766135668901882  0.8576955456107385  0.4999838335115356   T   T   T
  0.7158115284341804  0.0009579489663807  0.5002593996077564   T   T   T
  0.7156488125981753  0.1434777457826115  0.5002295176299114   T   T   T
  0.7158344182770335  0.2861866073570809  0.5002588540022828   T   T   T
  0.7118561913147943  0.4256760548156819  0.5000698480234220   T   T   T
  0.7161389344771223  0.5724025904620262  0.4991070456780520   T   T   T
  0.7161532020775496  0.7150523453403039  0.4990619736120792   T   T   T
  0.7118870340237891  0.8575234023814033  0.5000838446413383   T   T   T
  0.8581917968956887  0.0002469461070689  0.5005122232798769   T   T   T
  0.8581820406986154  0.1433120810685864  0.5003667960944185   T   T   T
  0.8581841429942685  0.2861805290562600  0.5002818186927556   T   T   T
  0.8581825240356977  0.4292639178018831  0.5003075772240280   T   T   T
  0.8574014651071735  0.5715143119034352  0.5003169554371851   T   T   T
  0.8588158039409919  0.7150843926059238  0.5001570705732661   T   T   T
  0.8574336316502169  0.8572589767795762  0.5003591021553362   T   T   T
  0.0492044782817018  0.0960903397792805  0.5002003592115827   T   T   T
  0.0477325038825853  0.2381090155394929  0.4998972154276515   T   T   T
  0.0477453383866546  0.3809929515489046  0.4998384992674474   T   T   T
  0.0491903010209498  0.5244512335717815  0.4999854865798739   T   T   T
  0.0495614777779494  0.6674433284011698  0.5001581224568170   T   T   T
  0.0494519594544727  0.8104049763487637  0.5002458055707990   T   T   T
  0.0495968765019015  0.9534918489400610  0.5003143273438440   T   T   T
  0.1928150215302367  0.0972560232763371  0.4995906652508495   T   T   T
  0.1917005721102996  0.2399996506210655  0.4992598790254661   T   T   T
  0.1897525962332409  0.3805633613006307  0.4990317204030958   T   T   T
  0.1917182166619043  0.5230651490876781  0.4991884183441044   T   T   T
  0.1928066071651031  0.6669154719565569  0.4994610493036689   T   T   T
  0.1928011127608542  0.8103407054613996  0.4998898343302542   T   T   T
  0.1928179676286703  0.9538266288899493  0.4998704159850078   T   T   T
  0.3358873085732768  0.0982665488261674  0.4995001053009531   T   T   T
  0.3369070741771196  0.2431060889947858  0.4989137675645381   T   T   T
  0.3368925424136222  0.6651884243018102  0.4989143003343770   T   T   T
  0.3358898008676903  0.8090399529160592  0.4995220258086164   T   T   T
  0.3352220674698714  0.9533171164778977  0.4997333994003910   T   T   T
  0.4779249888915800  0.0965082887715027  0.4997264943092219   T   T   T
  0.4787326964910505  0.2416081084574486  0.4997611947196390   T   T   T
  0.4787432009805741  0.8084806994971458  0.4997062394571117   T   T   T
  0.4779424482609116  0.9528180432305646  0.4997319688552437   T   T   T
  0.6202214361546794  0.0957897542674786  0.5000492586037524   T   T   T
  0.6210605099675988  0.2392998422192605  0.5001114132843298   T   T   T
  0.6210716183164138  0.9531035764417268  0.5000545090582307   T   T   T
  0.7633155273317769  0.0961855700973473  0.5002990361608468   T   T   T
  0.7633379866286703  0.2384454710626187  0.5002968680118087   T   T   T
  0.7627017839545829  0.3810269527468577  0.5002401485056538   T   T   T
  0.7608607179330207  0.5239673408628605  0.4999330125543793   T   T   T
  0.7629479277937818  0.6671330593796085  0.4994428296349369   T   T   T
  0.7608894394469061  0.8082326581582677  0.4999130389426014   T   T   T
  0.7627240117306826  0.9530127066292451  0.5003410293876840   T   T   T
  0.9056321883424587  0.0952823942067695  0.5004261799570102   T   T   T
  0.9054964595659314  0.2383893975321172  0.5002581137516131   T   T   T
  0.9056304586239747  0.3816643389156980  0.5002579309984867   T   T   T
  0.9058493270732555  0.5246296800646064  0.5003615265870422   T   T   T
  0.9058900563191727  0.6670359359407030  0.5003472589923774   T   T   T
  0.9059150900812796  0.8102344674291402  0.5003443703020451   T   T   T
  0.9058840156839949  0.9525955838800471  0.5005611095259326   T   T   T
  0.4686253222443497  0.3599472890110604  0.5003362387500161   T   T   T
  0.6432277314766282  0.6773125699295903  0.4976847366442598   T   T   T
  0.6432091115980185  0.5372408757617890  0.4977018375819995   T   T   T
  0.4685579574114769  0.6799794678112079  0.5003444591707762   T   T   T
  0.4634619107752087  0.5599165864615614  0.4730022589224845   T   T   T
  0.4628414539827688  0.4742731176904584  0.4732094459167513   T   T   T
  0.3316877661071516  0.3829723189890757  0.4971653686370914   T   T   T
  0.3317188218037899  0.5200931617074644  0.4971755203932915   T   T   T
  0.6218676313077935  0.3805685907564964  0.5000870071701087   T   T   T
  0.6218879695406372  0.8126377452976712  0.5000298288212619   T   T   T
  0.5059485018346024  0.5382564645026093  0.4651120913333457   T   T   F
 
  0.00000000E+00  0.00000000E+00  0.00000000E+00
  0.00000000E+00  0.00000000E+00  0.00000000E+00
  0.00000000E+00  0.00000000E+00  0.00000000E+00
  0.00000000E+00  0.00000000E+00  0.00000000E+00
  0.00000000E+00  0.00000000E+00  0.00000000E+00
  0.00000000E+00  0.00000000E+00  0.00000000E+00
  0.00000000E+00  0.00000000E+00  0.00000000E+00
  0.00000000E+00  0.00000000E+00  0.00000000E+00
  0.00000000E+00  0.00000000E+00  0.00000000E+00
  0.00000000E+00  0.00000000E+00  0.00000000E+00
  0.00000000E+00  0.00000000E+00  0.00000000E+00
  0.00000000E+00  0.00000000E+00  0.00000000E+00
  0.00000000E+00  0.00000000E+00  0.00000000E+00
  0.00000000E+00  0.00000000E+00  0.00000000E+00
  0.00000000E+00  0.00000000E+00  0.00000000E+00
  0.00000000E+00  0.00000000E+00  0.00000000E+00
  0.00000000E+00  0.00000000E+00  0.00000000E+00
  0.00000000E+00  0.00000000E+00  0.00000000E+00
  0.00000000E+00  0.00000000E+00  0.00000000E+00
  0.00000000E+00  0.00000000E+00  0.00000000E+00
  0.00000000E+00  0.00000000E+00  0.00000000E+00
  0.00000000E+00  0.00000000E+00  0.00000000E+00
  0.00000000E+00  0.00000000E+00  0.00000000E+00
  0.00000000E+00  0.00000000E+00  0.00000000E+00
  0.00000000E+00  0.00000000E+00  0.00000000E+00
  0.00000000E+00  0.00000000E+00  0.00000000E+00
  0.00000000E+00  0.00000000E+00  0.00000000E+00
  0.00000000E+00  0.00000000E+00  0.00000000E+00
  0.00000000E+00  0.00000000E+00  0.00000000E+00
  0.00000000E+00  0.00000000E+00  0.00000000E+00
  0.00000000E+00  0.00000000E+00  0.00000000E+00
  0.00000000E+00  0.00000000E+00  0.00000000E+00
  0.00000000E+00  0.00000000E+00  0.00000000E+00
  0.00000000E+00  0.00000000E+00  0.00000000E+00
  0.00000000E+00  0.00000000E+00  0.00000000E+00
  0.00000000E+00  0.00000000E+00  0.00000000E+00
  0.00000000E+00  0.00000000E+00  0.00000000E+00
  0.00000000E+00  0.00000000E+00  0.00000000E+00
  0.00000000E+00  0.00000000E+00  0.00000000E+00
  0.00000000E+00  0.00000000E+00  0.00000000E+00
  0.00000000E+00  0.00000000E+00  0.00000000E+00
  0.00000000E+00  0.00000000E+00  0.00000000E+00
  0.00000000E+00  0.00000000E+00  0.00000000E+00
  0.00000000E+00  0.00000000E+00  0.00000000E+00
  0.00000000E+00  0.00000000E+00  0.00000000E+00
  0.00000000E+00  0.00000000E+00  0.00000000E+00
  0.00000000E+00  0.00000000E+00  0.00000000E+00
  0.00000000E+00  0.00000000E+00  0.00000000E+00
  0.00000000E+00  0.00000000E+00  0.00000000E+00
  0.00000000E+00  0.00000000E+00  0.00000000E+00
  0.00000000E+00  0.00000000E+00  0.00000000E+00
  0.00000000E+00  0.00000000E+00  0.00000000E+00
  0.00000000E+00  0.00000000E+00  0.00000000E+00
  0.00000000E+00  0.00000000E+00  0.00000000E+00
  0.00000000E+00  0.00000000E+00  0.00000000E+00
  0.00000000E+00  0.00000000E+00  0.00000000E+00
  0.00000000E+00  0.00000000E+00  0.00000000E+00
  0.00000000E+00  0.00000000E+00  0.00000000E+00
  0.00000000E+00  0.00000000E+00  0.00000000E+00
  0.00000000E+00  0.00000000E+00  0.00000000E+00
  0.00000000E+00  0.00000000E+00  0.00000000E+00
  0.00000000E+00  0.00000000E+00  0.00000000E+00
  0.00000000E+00  0.00000000E+00  0.00000000E+00
  0.00000000E+00  0.00000000E+00  0.00000000E+00
  0.00000000E+00  0.00000000E+00  0.00000000E+00
  0.00000000E+00  0.00000000E+00  0.00000000E+00
  0.00000000E+00  0.00000000E+00  0.00000000E+00
  0.00000000E+00  0.00000000E+00  0.00000000E+00
  0.00000000E+00  0.00000000E+00  0.00000000E+00
  0.00000000E+00  0.00000000E+00  0.00000000E+00
  0.00000000E+00  0.00000000E+00  0.00000000E+00
  0.00000000E+00  0.00000000E+00  0.00000000E+00
  0.00000000E+00  0.00000000E+00  0.00000000E+00
  0.00000000E+00  0.00000000E+00  0.00000000E+00
  0.00000000E+00  0.00000000E+00  0.00000000E+00
  0.00000000E+00  0.00000000E+00  0.00000000E+00
  0.00000000E+00  0.00000000E+00  0.00000000E+00
  0.00000000E+00  0.00000000E+00  0.00000000E+00
  0.00000000E+00  0.00000000E+00  0.00000000E+00
  0.00000000E+00  0.00000000E+00  0.00000000E+00
  0.00000000E+00  0.00000000E+00  0.00000000E+00
  0.00000000E+00  0.00000000E+00  0.00000000E+00
  0.00000000E+00  0.00000000E+00  0.00000000E+00
  0.00000000E+00  0.00000000E+00  0.00000000E+00
  0.00000000E+00  0.00000000E+00  0.00000000E+00
  0.00000000E+00  0.00000000E+00  0.00000000E+00
  0.00000000E+00  0.00000000E+00  0.00000000E+00
  0.00000000E+00  0.00000000E+00  0.00000000E+00
  0.00000000E+00  0.00000000E+00  0.00000000E+00
  0.00000000E+00  0.00000000E+00  0.00000000E+00
  0.00000000E+00  0.00000000E+00  0.00000000E+00
  0.00000000E+00  0.00000000E+00  0.00000000E+00
  0.00000000E+00  0.00000000E+00  0.00000000E+00
  0.00000000E+00  0.00000000E+00  0.00000000E+00
  0.00000000E+00  0.00000000E+00  0.00000000E+00
