C    H    N    O                        
    1.000000000000000     
    17.2710380553999983    0.0000000000000000    0.0000000000000000
    -8.6355190276999991   14.9571577057000002    0.0000000000000000
     0.0000000000000000    0.0000000000000000   15.0000000000000000
   C    H    N    O 
    84     6     4     1
Selective dynamics
Direct
  0.0014175262738893  0.0006391548205130  0.5004475439229817   T   T   T
  0.0008807472278644  0.1430986220831297  0.5002112875797174   T   T   T
  0.0005295067504378  0.2859409504768096  0.5000171445570080   T   T   T
  0.0008823365912444  0.4291278983785815  0.5000566698852430   T   T   T
  0.0013867910763755  0.5721032890695184  0.5002210846914943   T   T   T
  0.0017729375217169  0.7149662467098844  0.5003153415669113   T   T   T
  0.0017969717728198  0.8582054273830744  0.5003739565756667   T   T   T
  0.1452029593461078  0.0018147694936301  0.4999383453226581   T   T   T
  0.1447358104539640  0.1444924490303615  0.4997349859760281   T   T   T
  0.1428551582830707  0.2859288987720321  0.4993922848703774   T   T   T
  0.1428354632309037  0.4282945765132541  0.4993702720133817   T   T   T
  0.1447388550074876  0.5715871134118999  0.4995609096254966   T   T   T
  0.1451778594822477  0.7147217925073628  0.4998633049840859   T   T   T
  0.1451070430692228  0.8582372522514835  0.5000287336049367   T   T   T
  0.2880824567891186  0.0018567044027421  0.4997006722722853   T   T   T
  0.2883675602038622  0.1465401040329473  0.4992553991702830   T   T   T
  0.2876099829853189  0.2926532262946092  0.4983978799558679   T   T   T
  0.2853966524981196  0.4283820856578802  0.4978377867237298   T   T   T
  0.2876475819672323  0.5663403498867799  0.4983793786889577   T   T   T
  0.2883841860467337  0.7132469385444714  0.4992205076650310   T   T   T
  0.2880836490171598  0.8576362349166079  0.4997750888140269   T   T   T
  0.4306121598693610  0.0009920017442706  0.4996997007253295   T   T   T
  0.4312554555720350  0.1456378600520398  0.4995841210901457   T   T   T
  0.4304875940436962  0.2872390185905351  0.4995472932554351   T   T   T
  0.4304685362384875  0.7146011627656083  0.4995415170216591   T   T   T
  0.4312912206252705  0.8570169177247611  0.4995861854368382   T   T   T
  0.5729196950620561  0.0005524294546382  0.4999270260871007   T   T   T
  0.5729102389349571  0.1437249395062400  0.4999632164742265   T   T   T
  0.5765916520908881  0.2902345975355136  0.5000478421644603   T   T   T
  0.5766135668901877  0.8576955456107402  0.4999838335115329   T   T   T
  0.7158115284341783  0.0009579489663816  0.5002593996077541   T   T   T
  0.7156488125981727  0.1434777457826121  0.5002295176299102   T   T   T
  0.7158344182770363  0.2861866073570820  0.5002588540022810   T   T   T
  0.7118561913147938  0.4256760548156822  0.5000698480234214   T   T   T
  0.7161389344771216  0.5724025904620259  0.4991070456780486   T   T   T
  0.7161532020775498  0.7150523453403035  0.4990619736120802   T   T   T
  0.7118870340237913  0.8575234023814002  0.5000838446413399   T   T   T
  0.8581917968956887  0.0002469461070664  0.5005122232798741   T   T   T
  0.8581820406986178  0.1433120810685870  0.5003667960944154   T   T   T
  0.8581841429942695  0.2861805290562622  0.5002818186927549   T   T   T
  0.8581825240356976  0.4292639178018814  0.5003075772240272   T   T   T
  0.8574014651071745  0.5715143119034384  0.5003169554371855   T   T   T
  0.8588158039409952  0.7150843926059210  0.5001570705732684   T   T   T
  0.8574336316502179  0.8572589767795763  0.5003591021553352   T   T   T
  0.0492044782817036  0.0960903397792839  0.5002003592115805   T   T   T
  0.0477325038825872  0.2381090155394946  0.4998972154276538   T   T   T
  0.0477453383866525  0.3809929515489043  0.4998384992674501   T   T   T
  0.0491903010209525  0.5244512335717846  0.4999854865798760   T   T   T
  0.0495614777779523  0.6674433284011685  0.5001581224568187   T   T   T
  0.0494519594544703  0.8104049763487637  0.5002458055708012   T   T   T
  0.0495968765019034  0.9534918489400627  0.5003143273438436   T   T   T
  0.1928150215302356  0.0972560232763395  0.4995906652508482   T   T   T
  0.1917005721103012  0.2399996506210636  0.4992598790254695   T   T   T
  0.1897525962332410  0.3805633613006330  0.4990317204030962   T   T   T
  0.1917182166619058  0.5230651490876773  0.4991884183441035   T   T   T
  0.1928066071651066  0.6669154719565575  0.4994610493036656   T   T   T
  0.1928011127608524  0.8103407054613991  0.4998898343302531   T   T   T
  0.1928179676286714  0.9538266288899487  0.4998704159850056   T   T   T
  0.3358873085732794  0.0982665488261697  0.4995001053009522   T   T   T
  0.3369070741771165  0.2431060889947831  0.4989137675645355   T   T   T
  0.3368925424136190  0.6651884243018086  0.4989143003343801   T   T   T
  0.3358898008676918  0.8090399529160598  0.4995220258086166   T   T   T
  0.3352220674698712  0.9533171164778951  0.4997333994003937   T   T   T
  0.4779249888915830  0.0965082887715057  0.4997264943092217   T   T   T
  0.4787326964910492  0.2416081084574478  0.4997611947196403   T   T   T
  0.4787432009805708  0.8084806994971440  0.4997062394571145   T   T   T
  0.4779424482609145  0.9528180432305667  0.4997319688552421   T   T   T
  0.6202214361546773  0.0957897542674762  0.5000492586037512   T   T   T
  0.6210605099675989  0.2392998422192616  0.5001114132843276   T   T   T
  0.6210716183164168  0.9531035764417283  0.5000545090582339   T   T   T
  0.7633155273317800  0.0961855700973503  0.5002990361608470   T   T   T
  0.7633379866286685  0.2384454710626167  0.5002968680118112   T   T   T
  0.7627017839545861  0.3810269527468603  0.5002401485056567   T   T   T
  0.7608607179330229  0.5239673408628587  0.4999330125543757   T   T   T
  0.7629479277937805  0.6671330593796110  0.4994428296349372   T   T   T
  0.7608894394469086  0.8082326581582663  0.4999130389425991   T   T   T
  0.7627240117306839  0.9530127066292470  0.5003410293876805   T   T   T
  0.9056321883424618  0.0952823942067694  0.5004261799570108   T   T   T
  0.9054964595659286  0.2383893975321184  0.5002581137516143   T   T   T
  0.9056304586239775  0.3816643389156996  0.5002579309984849   T   T   T
  0.9058493270732549  0.5246296800646089  0.5003615265870457   T   T   T
  0.9058900563191747  0.6670359359407027  0.5003472589923800   T   T   T
  0.9059150900812815  0.8102344674291369  0.5003443703020449   T   T   T
  0.9058840156839928  0.9525955838800444  0.5005611095259321   T   T   T
  0.4686253222443468  0.3599472890110623  0.5003362387500194   T   T   T
  0.6432277314766276  0.6773125699295911  0.4976847366442584   T   T   T
  0.6432091115980202  0.5372408757617915  0.4977018375819985   T   T   T
  0.4685579574114772  0.6799794678112077  0.5003444591707753   T   T   T
  0.4634619107752107  0.5599165864615648  0.4730022589224855   T   T   T
  0.4628414539827679  0.4742731176904563  0.4732094459167483   T   T   T
  0.3316877661071487  0.3829723189890749  0.4971653686370928   T   T   T
  0.3317188218037921  0.5200931617074654  0.4971755203932949   T   T   T
  0.6218676313077962  0.3805685907564988  0.5000870071701061   T   T   T
  0.6218879695406396  0.8126377452976722  0.5000298288212622   T   T   T
  0.5059485018346037  0.5382564645026076  0.4651120913333457   T   T   F
 
  0.00000000E+00  0.00000000E+00  0.00000000E+00
  0.00000000E+00  0.00000000E+00  0.00000000E+00
  0.00000000E+00  0.00000000E+00  0.00000000E+00
  0.00000000E+00  0.00000000E+00  0.00000000E+00
  0.00000000E+00  0.00000000E+00  0.00000000E+00
  0.00000000E+00  0.00000000E+00  0.00000000E+00
  0.00000000E+00  0.00000000E+00  0.00000000E+00
  0.00000000E+00  0.00000000E+00  0.00000000E+00
  0.00000000E+00  0.00000000E+00  0.00000000E+00
  0.00000000E+00  0.00000000E+00  0.00000000E+00
  0.00000000E+00  0.00000000E+00  0.00000000E+00
  0.00000000E+00  0.00000000E+00  0.00000000E+00
  0.00000000E+00  0.00000000E+00  0.00000000E+00
  0.00000000E+00  0.00000000E+00  0.00000000E+00
  0.00000000E+00  0.00000000E+00  0.00000000E+00
  0.00000000E+00  0.00000000E+00  0.00000000E+00
  0.00000000E+00  0.00000000E+00  0.00000000E+00
  0.00000000E+00  0.00000000E+00  0.00000000E+00
  0.00000000E+00  0.00000000E+00  0.00000000E+00
  0.00000000E+00  0.00000000E+00  0.00000000E+00
  0.00000000E+00  0.00000000E+00  0.00000000E+00
  0.00000000E+00  0.00000000E+00  0.00000000E+00
  0.00000000E+00  0.00000000E+00  0.00000000E+00
  0.00000000E+00  0.00000000E+00  0.00000000E+00
  0.00000000E+00  0.00000000E+00  0.00000000E+00
  0.00000000E+00  0.00000000E+00  0.00000000E+00
  0.00000000E+00  0.00000000E+00  0.00000000E+00
  0.00000000E+00  0.00000000E+00  0.00000000E+00
  0.00000000E+00  0.00000000E+00  0.00000000E+00
  0.00000000E+00  0.00000000E+00  0.00000000E+00
  0.00000000E+00  0.00000000E+00  0.00000000E+00
  0.00000000E+00  0.00000000E+00  0.00000000E+00
  0.00000000E+00  0.00000000E+00  0.00000000E+00
  0.00000000E+00  0.00000000E+00  0.00000000E+00
  0.00000000E+00  0.00000000E+00  0.00000000E+00
  0.00000000E+00  0.00000000E+00  0.00000000E+00
  0.00000000E+00  0.00000000E+00  0.00000000E+00
  0.00000000E+00  0.00000000E+00  0.00000000E+00
  0.00000000E+00  0.00000000E+00  0.00000000E+00
  0.00000000E+00  0.00000000E+00  0.00000000E+00
  0.00000000E+00  0.00000000E+00  0.00000000E+00
  0.00000000E+00  0.00000000E+00  0.00000000E+00
  0.00000000E+00  0.00000000E+00  0.00000000E+00
  0.00000000E+00  0.00000000E+00  0.00000000E+00
  0.00000000E+00  0.00000000E+00  0.00000000E+00
  0.00000000E+00  0.00000000E+00  0.00000000E+00
  0.00000000E+00  0.00000000E+00  0.00000000E+00
  0.00000000E+00  0.00000000E+00  0.00000000E+00
  0.00000000E+00  0.00000000E+00  0.00000000E+00
  0.00000000E+00  0.00000000E+00  0.00000000E+00
  0.00000000E+00  0.00000000E+00  0.00000000E+00
  0.00000000E+00  0.00000000E+00  0.00000000E+00
  0.00000000E+00  0.00000000E+00  0.00000000E+00
  0.00000000E+00  0.00000000E+00  0.00000000E+00
  0.00000000E+00  0.00000000E+00  0.00000000E+00
  0.00000000E+00  0.00000000E+00  0.00000000E+00
  0.00000000E+00  0.00000000E+00  0.00000000E+00
  0.00000000E+00  0.00000000E+00  0.00000000E+00
  0.00000000E+00  0.00000000E+00  0.00000000E+00
  0.00000000E+00  0.00000000E+00  0.00000000E+00
  0.00000000E+00  0.00000000E+00  0.00000000E+00
  0.00000000E+00  0.00000000E+00  0.00000000E+00
  0.00000000E+00  0.00000000E+00  0.00000000E+00
  0.00000000E+00  0.00000000E+00  0.00000000E+00
  0.00000000E+00  0.00000000E+00  0.00000000E+00
  0.00000000E+00  0.00000000E+00  0.00000000E+00
  0.00000000E+00  0.00000000E+00  0.00000000E+00
  0.00000000E+00  0.00000000E+00  0.00000000E+00
  0.00000000E+00  0.00000000E+00  0.00000000E+00
  0.00000000E+00  0.00000000E+00  0.00000000E+00
  0.00000000E+00  0.00000000E+00  0.00000000E+00
  0.00000000E+00  0.00000000E+00  0.00000000E+00
  0.00000000E+00  0.00000000E+00  0.00000000E+00
  0.00000000E+00  0.00000000E+00  0.00000000E+00
  0.00000000E+00  0.00000000E+00  0.00000000E+00
  0.00000000E+00  0.00000000E+00  0.00000000E+00
  0.00000000E+00  0.00000000E+00  0.00000000E+00
  0.00000000E+00  0.00000000E+00  0.00000000E+00
  0.00000000E+00  0.00000000E+00  0.00000000E+00
  0.00000000E+00  0.00000000E+00  0.00000000E+00
  0.00000000E+00  0.00000000E+00  0.00000000E+00
  0.00000000E+00  0.00000000E+00  0.00000000E+00
  0.00000000E+00  0.00000000E+00  0.00000000E+00
  0.00000000E+00  0.00000000E+00  0.00000000E+00
  0.00000000E+00  0.00000000E+00  0.00000000E+00
  0.00000000E+00  0.00000000E+00  0.00000000E+00
  0.00000000E+00  0.00000000E+00  0.00000000E+00
  0.00000000E+00  0.00000000E+00  0.00000000E+00
  0.00000000E+00  0.00000000E+00  0.00000000E+00
  0.00000000E+00  0.00000000E+00  0.00000000E+00
  0.00000000E+00  0.00000000E+00  0.00000000E+00
  0.00000000E+00  0.00000000E+00  0.00000000E+00
  0.00000000E+00  0.00000000E+00  0.00000000E+00
  0.00000000E+00  0.00000000E+00  0.00000000E+00
  0.00000000E+00  0.00000000E+00  0.00000000E+00
