C    H    N    O                        
    1.000000000000000     
    17.2710380553999983    0.0000000000000000    0.0000000000000000
    -8.6355190276999991   14.9571577057000002    0.0000000000000000
     0.0000000000000000    0.0000000000000000   15.0000000000000000
   C    H    N    O 
    86     8     2     1
Selective dynamics
Direct
  0.9994408657815672  0.9994792857607268  0.4998368150731182   T   T   T
  0.9989561602997266  0.1420230765401289  0.4999146769628600   T   T   T
  0.9988706484183701  0.2851184576206392  0.5000738028919811   T   T   T
  0.9989446717520359  0.4282736079315582  0.5001276974003896   T   T   T
  0.9994683091907770  0.5712810742905278  0.5000325126509507   T   T   T
  0.9999461796821177  0.7140931916143225  0.4998786552263719   T   T   T
  0.9999461563819043  0.8571549660840776  0.4998248064830798   T   T   T
  0.1430280622884657  1.0001784581621735  0.4998977169609165   T   T   T
  0.1421766762902967  0.1424244643539635  0.4999806281243367   T   T   T
  0.1409777942090031  0.2844577169552789  0.5002475498705052   T   T   T
  0.1409880095316925  0.4278517227797738  0.5004716310568094   T   T   T
  0.1421985485692184  0.5710612202767974  0.5002932501919551   T   T   T
  0.1430653593275180  0.7141422998161564  0.5000189864051042   T   T   T
  0.1431605197953307  0.8572192171227231  0.4998406843364021   T   T   T
  0.2861664577906419  1.0002292038886744  0.4998611887210037   T   T   T
  0.2861400536490272  0.1431445628841800  0.4999539108234071   T   T   T
  0.2848949634383408  0.2863745288791442  0.5003288902394480   T   T   T
  0.2821598136317686  0.4267128116208957  0.5008530580795635   T   T   T
  0.2849183506050007  0.5698419342608174  0.5006954621707377   T   T   T
  0.2861881234978240  0.7143036912117751  0.5003019405138686   T   T   T
  0.2861868073782037  0.8572620419504452  0.4999820095815788   T   T   T
  0.4289782315573057  1.0001699539088926  0.4999995286479662   T   T   T
  0.4295755537514068  0.1438134006628982  0.4999336083222465   T   T   T
  0.4279421204327112  0.2837479759666519  0.5000255265925631   T   T   T
  0.4280290409169324  0.7155512025336626  0.5004974146964573   T   T   T
  0.4296058912590269  0.8571260288113219  0.5001867334203478   T   T   T
  0.5714333558736013  0.9999920906223478  0.5001789526606810   T   T   T
  0.5714358532559020  0.1428736394569132  0.5000415949777731   T   T   T
  0.5748716237745910  0.2890322048206885  0.4999386717359656   T   T   T
  0.5749121840107745  0.8572873046143481  0.5002399463619072   T   T   T
  0.7142412555495036  0.0003934679990961  0.5001037960905618   T   T   T
  0.7140574316654533  0.1427389008565135  0.5000717064863658   T   T   T
  0.7142185390235436  0.2852630796626230  0.4999912007949047   T   T   T
  0.7102924258533159  0.4246266092403076  0.4999112400415762   T   T   T
  0.7166586977818651  0.5720684030748149  0.4998744312261122   T   T   T
  0.7166811742310720  0.7159800373939260  0.4998604697411613   T   T   T
  0.7103219651545797  0.8570776146928814  0.5000292374555969   T   T   T
  0.8564053081056059  0.9995220147122726  0.4999410197687621   T   T   T
  0.8565188727472155  0.1425771618846562  0.4999794855906441   T   T   T
  0.8565209070730408  0.2853651968090372  0.5000010220825062   T   T   T
  0.8563943561916620  0.4282641887657487  0.4999788303785587   T   T   T
  0.8562957479744493  0.5706679508825110  0.4999054390452947   T   T   T
  0.8573815611259720  0.7143630906184807  0.4997601410816718   T   T   T
  0.8562958331023917  0.8569725063500977  0.4998204496875551   T   T   T
  0.0469625751694626  0.0946783805242682  0.4998861869458500   T   T   T
  0.0459071263029412  0.2369546092305685  0.5000546162715178   T   T   T
  0.0459066274583345  0.3803127125654902  0.5002272695620682   T   T   T
  0.0469813351478186  0.5236128153548311  0.5001580889807742   T   T   T
  0.0475252266766812  0.6666133256955362  0.4999822957797045   T   T   T
  0.0475379814666046  0.8094109555500769  0.4998367020198451   T   T   T
  0.0475049752010815  0.9522049585567511  0.4998556562234190   T   T   T
  0.1905152695773583  0.0951415159461357  0.4999436468432406   T   T   T
  0.1891473919104892  0.2373645537717372  0.5001666060623879   T   T   T
  0.1871747402547880  0.3792479776573480  0.5005478503106561   T   T   T
  0.1891742158020955  0.5230950099132570  0.5004869074226200   T   T   T
  0.1905582147407670  0.6666729029759367  0.5001837690010156   T   T   T
  0.1909111757772134  0.8096518409938482  0.4999279355934853   T   T   T
  0.1909061762138840  0.9525520842630900  0.4998623033750424   T   T   T
  0.3341395421882231  0.0959605384388694  0.4998869736872249   T   T   T
  0.3345093033495379  0.2385718030289682  0.5000830220693481   T   T   T
  0.3282966921179190  0.3788364296488823  0.5007634654272284   T   T   T
  0.3282717756610398  0.5207382471466835  0.5009882650383132   T   T   T
  0.3345962950128293  0.6672615203209201  0.5005463773367509   T   T   T
  0.3341597712773905  0.8094965280670943  0.5001446451885855   T   T   T
  0.3335556622017668  0.9524504118194934  0.4999135850484690   T   T   T
  0.4764776742056982  0.0954116729271762  0.4999821930552960   T   T   T
  0.4771086490837869  0.2395925717014633  0.4999505143713975   T   T   T
  0.4771507665676767  0.8088928458249044  0.5003224001501287   T   T   T
  0.4764963729351031  0.9524743469314160  0.5001277839575281   T   T   T
  0.6187857740690087  0.0951053564642531  0.5001127456585627   T   T   T
  0.6195109736201060  0.2383623841435890  0.4999924002052439   T   T   T
  0.6195354915586219  0.9525996669744256  0.5002051010038894   T   T   T
  0.7617300800864557  0.0955201632955094  0.5000485313024795   T   T   T
  0.7617023686513578  0.2376186681902207  0.5000178893997586   T   T   T
  0.7610473788385296  0.3800590886284608  0.4999526639453644   T   T   T
  0.7601267196787010  0.5230080990704032  0.4998776533319731   T   T   T
  0.7616107724690567  0.6664815623719330  0.4998021890564909   T   T   T
  0.7601292398921671  0.8084990692184719  0.4998743090609722   T   T   T
  0.7610681238949097  0.9524161574597646  0.5000344030332846   T   T   T
  0.9037755106897705  0.0944022656043051  0.4999278403867617   T   T   T
  0.9039140264720849  0.2376567364672591  0.4999951750988256   T   T   T
  0.9037761527573510  0.3807634518082564  0.5000177687108091   T   T   T
  0.9041845842601225  0.5236455475736645  0.4999709413755682   T   T   T
  0.9042461844358145  0.6661357710774409  0.4998461660714137   T   T   T
  0.9042484707227200  0.8094519508480985  0.4997709650209723   T   T   T
  0.9041834863023784  0.9518938021874915  0.4998707069934892   T   T   T
  0.4661171374645235  0.3563214339943260  0.5000869271424936   T   T   T
  0.4003994595113542  0.4181208324297274  0.5009454840632587   T   T   T
  0.4003649189604817  0.5535936061990008  0.5012058793353109   T   T   T
  0.6444449662451727  0.6824345533074848  0.5000350304887449   T   T   T
  0.6444214122619892  0.5332974688096176  0.5000583975354852   T   T   T
  0.4662512186084355  0.6812116353110127  0.5005922874654263   T   T   T
  0.5477216414576365  0.6046616601436072  0.4993325525293544   T   T   T
  0.5485496508099121  0.5157741743808824  0.4991766106192951   T   T   T
  0.6201722643935679  0.3796592414156806  0.4998992908402941   T   T   T
  0.6202087996498544  0.8119559238877110  0.5001403408568562   T   T   T
  0.5086707670166791  0.5402048985371977  0.5000000455000091   T   T   F
 
  0.00000000E+00  0.00000000E+00  0.00000000E+00
  0.00000000E+00  0.00000000E+00  0.00000000E+00
  0.00000000E+00  0.00000000E+00  0.00000000E+00
  0.00000000E+00  0.00000000E+00  0.00000000E+00
  0.00000000E+00  0.00000000E+00  0.00000000E+00
  0.00000000E+00  0.00000000E+00  0.00000000E+00
  0.00000000E+00  0.00000000E+00  0.00000000E+00
  0.00000000E+00  0.00000000E+00  0.00000000E+00
  0.00000000E+00  0.00000000E+00  0.00000000E+00
  0.00000000E+00  0.00000000E+00  0.00000000E+00
  0.00000000E+00  0.00000000E+00  0.00000000E+00
  0.00000000E+00  0.00000000E+00  0.00000000E+00
  0.00000000E+00  0.00000000E+00  0.00000000E+00
  0.00000000E+00  0.00000000E+00  0.00000000E+00
  0.00000000E+00  0.00000000E+00  0.00000000E+00
  0.00000000E+00  0.00000000E+00  0.00000000E+00
  0.00000000E+00  0.00000000E+00  0.00000000E+00
  0.00000000E+00  0.00000000E+00  0.00000000E+00
  0.00000000E+00  0.00000000E+00  0.00000000E+00
  0.00000000E+00  0.00000000E+00  0.00000000E+00
  0.00000000E+00  0.00000000E+00  0.00000000E+00
  0.00000000E+00  0.00000000E+00  0.00000000E+00
  0.00000000E+00  0.00000000E+00  0.00000000E+00
  0.00000000E+00  0.00000000E+00  0.00000000E+00
  0.00000000E+00  0.00000000E+00  0.00000000E+00
  0.00000000E+00  0.00000000E+00  0.00000000E+00
  0.00000000E+00  0.00000000E+00  0.00000000E+00
  0.00000000E+00  0.00000000E+00  0.00000000E+00
  0.00000000E+00  0.00000000E+00  0.00000000E+00
  0.00000000E+00  0.00000000E+00  0.00000000E+00
  0.00000000E+00  0.00000000E+00  0.00000000E+00
  0.00000000E+00  0.00000000E+00  0.00000000E+00
  0.00000000E+00  0.00000000E+00  0.00000000E+00
  0.00000000E+00  0.00000000E+00  0.00000000E+00
  0.00000000E+00  0.00000000E+00  0.00000000E+00
  0.00000000E+00  0.00000000E+00  0.00000000E+00
  0.00000000E+00  0.00000000E+00  0.00000000E+00
  0.00000000E+00  0.00000000E+00  0.00000000E+00
  0.00000000E+00  0.00000000E+00  0.00000000E+00
  0.00000000E+00  0.00000000E+00  0.00000000E+00
  0.00000000E+00  0.00000000E+00  0.00000000E+00
  0.00000000E+00  0.00000000E+00  0.00000000E+00
  0.00000000E+00  0.00000000E+00  0.00000000E+00
  0.00000000E+00  0.00000000E+00  0.00000000E+00
  0.00000000E+00  0.00000000E+00  0.00000000E+00
  0.00000000E+00  0.00000000E+00  0.00000000E+00
  0.00000000E+00  0.00000000E+00  0.00000000E+00
  0.00000000E+00  0.00000000E+00  0.00000000E+00
  0.00000000E+00  0.00000000E+00  0.00000000E+00
  0.00000000E+00  0.00000000E+00  0.00000000E+00
  0.00000000E+00  0.00000000E+00  0.00000000E+00
  0.00000000E+00  0.00000000E+00  0.00000000E+00
  0.00000000E+00  0.00000000E+00  0.00000000E+00
  0.00000000E+00  0.00000000E+00  0.00000000E+00
  0.00000000E+00  0.00000000E+00  0.00000000E+00
  0.00000000E+00  0.00000000E+00  0.00000000E+00
  0.00000000E+00  0.00000000E+00  0.00000000E+00
  0.00000000E+00  0.00000000E+00  0.00000000E+00
  0.00000000E+00  0.00000000E+00  0.00000000E+00
  0.00000000E+00  0.00000000E+00  0.00000000E+00
  0.00000000E+00  0.00000000E+00  0.00000000E+00
  0.00000000E+00  0.00000000E+00  0.00000000E+00
  0.00000000E+00  0.00000000E+00  0.00000000E+00
  0.00000000E+00  0.00000000E+00  0.00000000E+00
  0.00000000E+00  0.00000000E+00  0.00000000E+00
  0.00000000E+00  0.00000000E+00  0.00000000E+00
  0.00000000E+00  0.00000000E+00  0.00000000E+00
  0.00000000E+00  0.00000000E+00  0.00000000E+00
  0.00000000E+00  0.00000000E+00  0.00000000E+00
  0.00000000E+00  0.00000000E+00  0.00000000E+00
  0.00000000E+00  0.00000000E+00  0.00000000E+00
  0.00000000E+00  0.00000000E+00  0.00000000E+00
  0.00000000E+00  0.00000000E+00  0.00000000E+00
  0.00000000E+00  0.00000000E+00  0.00000000E+00
  0.00000000E+00  0.00000000E+00  0.00000000E+00
  0.00000000E+00  0.00000000E+00  0.00000000E+00
  0.00000000E+00  0.00000000E+00  0.00000000E+00
  0.00000000E+00  0.00000000E+00  0.00000000E+00
  0.00000000E+00  0.00000000E+00  0.00000000E+00
  0.00000000E+00  0.00000000E+00  0.00000000E+00
  0.00000000E+00  0.00000000E+00  0.00000000E+00
  0.00000000E+00  0.00000000E+00  0.00000000E+00
  0.00000000E+00  0.00000000E+00  0.00000000E+00
  0.00000000E+00  0.00000000E+00  0.00000000E+00
  0.00000000E+00  0.00000000E+00  0.00000000E+00
  0.00000000E+00  0.00000000E+00  0.00000000E+00
  0.00000000E+00  0.00000000E+00  0.00000000E+00
  0.00000000E+00  0.00000000E+00  0.00000000E+00
  0.00000000E+00  0.00000000E+00  0.00000000E+00
  0.00000000E+00  0.00000000E+00  0.00000000E+00
  0.00000000E+00  0.00000000E+00  0.00000000E+00
  0.00000000E+00  0.00000000E+00  0.00000000E+00
  0.00000000E+00  0.00000000E+00  0.00000000E+00
  0.00000000E+00  0.00000000E+00  0.00000000E+00
  0.00000000E+00  0.00000000E+00  0.00000000E+00
  0.00000000E+00  0.00000000E+00  0.00000000E+00
  0.00000000E+00  0.00000000E+00  0.00000000E+00
