C4                                      
    1.000000000000000     
    17.2710380553999983    0.0000000000000000    0.0000000000000000
    -8.6355190276999991   14.9571577057000002    0.0000000000000000
     0.0000000000000000    0.0000000000000000   15.0000000000000000
   C    H    F 
    88     4     4
Direct
  0.0002070332919367  0.0001212479429274  0.2500030878052816
 -0.0005770304700713  0.1425689357480137  0.2500000642262206
 -0.0009161498289482  0.2852289693532126  0.2500002891054004
 -0.0006658350586564  0.4282469881957325  0.2500010897576102
  0.0001277171873467  0.5714363571983485  0.2500012603212446
  0.0018111527459872  0.7148864752734694  0.2500001830462137
  0.0017885558840697  0.8582561408032021  0.2499996486340700
  0.1430468150442714  0.0000413106953261  0.2499991472204727
  0.1423800288209966  0.1426727171961151  0.2500028544031928
  0.1413476497642003  0.2847112703827790  0.2500018028120073
  0.1413177627710316  0.4279555501008623  0.2499999073673138
  0.1423113660990003  0.5710884923469763  0.2500009058025501
  0.1430163503122304  0.7143569688742348  0.2499982298899108
  0.1434236687993875  0.8573824637940463  0.2499974058894773
  0.2853930802526857 -0.0006136167271729  0.2499995140129661
  0.2844831810802432  0.1411663037672939  0.2499979921896117
  0.2850615465679156  0.2852203797819700  0.2500004405300705
  0.2826050531917021  0.4269512711360982  0.2499996410747035
  0.2850205316575699  0.5711745829703104  0.2500004085779196
  0.2844962935334116  0.7147172072231758  0.2499998629405653
  0.2853603729703809  0.8573260146230071  0.2499997696423061
  0.4284457400857653 -0.0001580572192731  0.2500044365071922
  0.4279622646867434  0.1412890865447091  0.2499981595172270
  0.4249681622576305  0.2791784949648085  0.2500014771946072
  0.4249901565091749  0.7171717351434070  0.2500008240098808
  0.4279479214891151  0.8579868244062145  0.2500028912466558
  0.5713319525583617  0.0003129683938487  0.2500040788197437
  0.5712650697092363  0.1423703695267149  0.2500067644266138
  0.5711043010643762  0.2844465623238999  0.2499984329583595
  0.5711462341896775  0.8581037867708649  0.2499998265269183
  0.7143718791195077  0.0001645867290409  0.2500015707805080
  0.7142782373951089  0.1428713895503755  0.2500019148808250
  0.7142388727671185  0.2855459942770885  0.2500014045956455
  0.7149620395286662  0.4286206624082325  0.2499967101728238
  0.7203754067509355  0.5762418744044008  0.2500060659888050
  0.7204269267588121  0.7154952638090111  0.2500027150874782
  0.7150698116332491  0.8577855792083301  0.2500031046096541
  0.8573098601606883  0.0001937177973807  0.2500032147407777
  0.8567786722543531  0.1427044082597701  0.2500007027707885
  0.8566480657054514  0.2854006217759819  0.2500014141056898
  0.8571792639862039  0.4284418364006752  0.2500034692062391
  0.8583613897967618  0.5721708727554919  0.2499990015616870
  0.8619533746716388  0.7166752865483870  0.2499985630639132
  0.8583905459154776  0.8575850918300572  0.2500030960602220
  0.0473906884339228  0.0952708561794006  0.2500030784208874
  0.0462846739600782  0.2373338789801452  0.2500010867089059
  0.0462426999949158  0.3803285710364642  0.2500002912365743
  0.0473085655236249  0.5235192686283695  0.2500016769684497
  0.0482389084555014  0.6667462126662829  0.2500002077818479
  0.0486964680618446  0.8100254885563002  0.2499991212704473
  0.0482498704388440  0.9528345612408611  0.2500005017624310
  0.1897619624995011  0.0945145993107411  0.2500000369440062
  0.1893421932158064  0.2376596421609153  0.2500023691554945
  0.1875745894048586  0.3794273887396514  0.2500003453462199
  0.1892686335705441  0.5230406212418838  0.2500004498480690
  0.1897549617051826  0.6666499550349864  0.2499992139181720
  0.1905962631822453  0.8096572416602169  0.2499979640008163
  0.1906165788094051  0.9522689500068164  0.2499981149704628
  0.3328195786160836  0.0943772617004728  0.2499985625016280
  0.3324803688087663  0.2357862751669243  0.2499996092869766
  0.3274481274085727  0.3779753709683743  0.2499976919814934
  0.3273199928792369  0.5207632294102008  0.2500001881881921
  0.3324812778382666  0.6680637758604122  0.2500007519768292
  0.3328231936487822  0.8098262390793615  0.2500003889444086
  0.3330593108684701  0.9521675406422454  0.2500002744921750
  0.4760823030448951  0.0945078182655913  0.2500040197700190
  0.4746606165145710  0.2358936442304305  0.2499958556692395
  0.4746863319401454  0.8101422998396540  0.2500003038819211
  0.4761257668743903  0.9528590033645646  0.2500055240795329
  0.6189624003580484  0.0951939725008186  0.2500050643561574
  0.6191660490988732  0.2375435603114881  0.2500055946972463
  0.6222449516761447  0.3777000135794462  0.2499810433251068
  0.6223580473768786  0.8161051188984044  0.2500009397581434
  0.6192560190679596  0.9530636133378682  0.2500009147308009
  0.7618519376542431  0.0954108967828113  0.2500008739589007
  0.7617332307804540  0.2378737257011802  0.2500007770943107
  0.7621716992098089  0.3806930984009122  0.2499993308800749
  0.7625252029843624  0.5255992847855853  0.2499998388443767
  0.7679527751320921  0.6696463698547483  0.2500033564687312
  0.7625758080588481  0.8082904227397483  0.2500030414052407
  0.7622805057209849  0.9529187163400480  0.2500025303275825
  0.9043463088176736  0.0949117491465648  0.2500006277260726
  0.9040777786805573  0.2377477985161710  0.2500009673424555
  0.9042118780238535  0.3807352478965258  0.2500026715410577
  0.9050868846580724  0.5239969686466601  0.2500010616425516
  0.9071129450423004  0.6673974399064473  0.2500000281514914
  0.9071065992067551  0.8111182500289928  0.2500005593808987
  0.9051276448353179  0.9524662972316290  0.2500045493522241
  0.4596676624564638  0.3500073124677623  0.2500069604273342
  0.6488259168962377  0.6735496493224898  0.2500029531332926
  0.6487905711058646  0.5466361594995200  0.2500087308777740
  0.4596768397923987  0.6810207829436210  0.2500006794229833
  0.4182523227756254  0.4273804894083155  0.2499911735093066
  0.4180661936690926  0.5620552864874097  0.2500004402506182
  0.5775828038750195  0.4238672114033674  0.2499259608779041
  0.5777023753443139  0.7253431685199401  0.2499983573307992
 
  0.00000000E+00  0.00000000E+00  0.00000000E+00
  0.00000000E+00  0.00000000E+00  0.00000000E+00
  0.00000000E+00  0.00000000E+00  0.00000000E+00
  0.00000000E+00  0.00000000E+00  0.00000000E+00
  0.00000000E+00  0.00000000E+00  0.00000000E+00
  0.00000000E+00  0.00000000E+00  0.00000000E+00
  0.00000000E+00  0.00000000E+00  0.00000000E+00
  0.00000000E+00  0.00000000E+00  0.00000000E+00
  0.00000000E+00  0.00000000E+00  0.00000000E+00
  0.00000000E+00  0.00000000E+00  0.00000000E+00
  0.00000000E+00  0.00000000E+00  0.00000000E+00
  0.00000000E+00  0.00000000E+00  0.00000000E+00
  0.00000000E+00  0.00000000E+00  0.00000000E+00
  0.00000000E+00  0.00000000E+00  0.00000000E+00
  0.00000000E+00  0.00000000E+00  0.00000000E+00
  0.00000000E+00  0.00000000E+00  0.00000000E+00
  0.00000000E+00  0.00000000E+00  0.00000000E+00
  0.00000000E+00  0.00000000E+00  0.00000000E+00
  0.00000000E+00  0.00000000E+00  0.00000000E+00
  0.00000000E+00  0.00000000E+00  0.00000000E+00
  0.00000000E+00  0.00000000E+00  0.00000000E+00
  0.00000000E+00  0.00000000E+00  0.00000000E+00
  0.00000000E+00  0.00000000E+00  0.00000000E+00
  0.00000000E+00  0.00000000E+00  0.00000000E+00
  0.00000000E+00  0.00000000E+00  0.00000000E+00
  0.00000000E+00  0.00000000E+00  0.00000000E+00
  0.00000000E+00  0.00000000E+00  0.00000000E+00
  0.00000000E+00  0.00000000E+00  0.00000000E+00
  0.00000000E+00  0.00000000E+00  0.00000000E+00
  0.00000000E+00  0.00000000E+00  0.00000000E+00
  0.00000000E+00  0.00000000E+00  0.00000000E+00
  0.00000000E+00  0.00000000E+00  0.00000000E+00
  0.00000000E+00  0.00000000E+00  0.00000000E+00
  0.00000000E+00  0.00000000E+00  0.00000000E+00
  0.00000000E+00  0.00000000E+00  0.00000000E+00
  0.00000000E+00  0.00000000E+00  0.00000000E+00
  0.00000000E+00  0.00000000E+00  0.00000000E+00
  0.00000000E+00  0.00000000E+00  0.00000000E+00
  0.00000000E+00  0.00000000E+00  0.00000000E+00
  0.00000000E+00  0.00000000E+00  0.00000000E+00
  0.00000000E+00  0.00000000E+00  0.00000000E+00
  0.00000000E+00  0.00000000E+00  0.00000000E+00
  0.00000000E+00  0.00000000E+00  0.00000000E+00
  0.00000000E+00  0.00000000E+00  0.00000000E+00
  0.00000000E+00  0.00000000E+00  0.00000000E+00
  0.00000000E+00  0.00000000E+00  0.00000000E+00
  0.00000000E+00  0.00000000E+00  0.00000000E+00
  0.00000000E+00  0.00000000E+00  0.00000000E+00
  0.00000000E+00  0.00000000E+00  0.00000000E+00
  0.00000000E+00  0.00000000E+00  0.00000000E+00
  0.00000000E+00  0.00000000E+00  0.00000000E+00
  0.00000000E+00  0.00000000E+00  0.00000000E+00
  0.00000000E+00  0.00000000E+00  0.00000000E+00
  0.00000000E+00  0.00000000E+00  0.00000000E+00
  0.00000000E+00  0.00000000E+00  0.00000000E+00
  0.00000000E+00  0.00000000E+00  0.00000000E+00
  0.00000000E+00  0.00000000E+00  0.00000000E+00
  0.00000000E+00  0.00000000E+00  0.00000000E+00
  0.00000000E+00  0.00000000E+00  0.00000000E+00
  0.00000000E+00  0.00000000E+00  0.00000000E+00
  0.00000000E+00  0.00000000E+00  0.00000000E+00
  0.00000000E+00  0.00000000E+00  0.00000000E+00
  0.00000000E+00  0.00000000E+00  0.00000000E+00
  0.00000000E+00  0.00000000E+00  0.00000000E+00
  0.00000000E+00  0.00000000E+00  0.00000000E+00
  0.00000000E+00  0.00000000E+00  0.00000000E+00
  0.00000000E+00  0.00000000E+00  0.00000000E+00
  0.00000000E+00  0.00000000E+00  0.00000000E+00
  0.00000000E+00  0.00000000E+00  0.00000000E+00
  0.00000000E+00  0.00000000E+00  0.00000000E+00
  0.00000000E+00  0.00000000E+00  0.00000000E+00
  0.00000000E+00  0.00000000E+00  0.00000000E+00
  0.00000000E+00  0.00000000E+00  0.00000000E+00
  0.00000000E+00  0.00000000E+00  0.00000000E+00
  0.00000000E+00  0.00000000E+00  0.00000000E+00
  0.00000000E+00  0.00000000E+00  0.00000000E+00
  0.00000000E+00  0.00000000E+00  0.00000000E+00
  0.00000000E+00  0.00000000E+00  0.00000000E+00
  0.00000000E+00  0.00000000E+00  0.00000000E+00
  0.00000000E+00  0.00000000E+00  0.00000000E+00
  0.00000000E+00  0.00000000E+00  0.00000000E+00
  0.00000000E+00  0.00000000E+00  0.00000000E+00
  0.00000000E+00  0.00000000E+00  0.00000000E+00
  0.00000000E+00  0.00000000E+00  0.00000000E+00
  0.00000000E+00  0.00000000E+00  0.00000000E+00
  0.00000000E+00  0.00000000E+00  0.00000000E+00
  0.00000000E+00  0.00000000E+00  0.00000000E+00
  0.00000000E+00  0.00000000E+00  0.00000000E+00
  0.00000000E+00  0.00000000E+00  0.00000000E+00
  0.00000000E+00  0.00000000E+00  0.00000000E+00
  0.00000000E+00  0.00000000E+00  0.00000000E+00
  0.00000000E+00  0.00000000E+00  0.00000000E+00
  0.00000000E+00  0.00000000E+00  0.00000000E+00
  0.00000000E+00  0.00000000E+00  0.00000000E+00
  0.00000000E+00  0.00000000E+00  0.00000000E+00
  0.00000000E+00  0.00000000E+00  0.00000000E+00
