C4                                      
    1.000000000000000     
    17.2710380553999983    0.0000000000000000    0.0000000000000000
    -8.6355190276999991   14.9571577057000002    0.0000000000000000
     0.0000000000000000    0.0000000000000000   15.0000000000000000
   C    F    N 
    86     6     2
Direct
  0.0011514919382489  0.0005977273204297  0.2499990892886007
 -0.0020061691193955  0.1416727090210856  0.2499993407023937
 -0.0027778214259974  0.2845991635446161  0.2499965087697477
 -0.0011164814444838  0.4281938198899251  0.2499969055914018
 -0.0000148742775913  0.5717122560822779  0.2500010393167201
  0.0025768745864626  0.7153971003722973  0.2500013014238439
  0.0043163976985067  0.8595765308469867  0.2500010247075180
  0.1438739396359293  0.0002585184405564  0.2500000619658945
  0.1406302320284062  0.1412137833215212  0.2499989400977846
  0.1369594547557471  0.2816431491828507  0.2499980122327761
  0.1393868197126145  0.4264555307198232  0.2499988333337126
  0.1428994111473329  0.5702833823007143  0.2500007271218070
  0.1433266598347911  0.7142221273316701  0.2500018493800688
  0.1448107221647057  0.8577409000084197  0.2500004140688542
  0.2863334004100487  0.0003276928701185  0.2499996852981442
  0.2834915544141203  0.1415077250511816  0.2500001202698526
  0.2797391391386287  0.2852691527638735  0.2499976521280837
  0.2755900336813483  0.4174997779182713  0.2499985665186469
  0.2870718303059992  0.5675655135985366  0.2500007205093076
  0.2838064591010483  0.7136954483288941  0.2500109676327139
  0.2862721297301716  0.8574505804299212  0.2500035641556454
  0.4288920536028140  0.0008159365021361  0.2500037899344760
  0.4280623197217710  0.1441714468960942  0.2499996661117280
  0.4208067080970518  0.2805670995939001  0.2500017094310686
  0.4216117508574043  0.7178377712349729  0.2499836325267734
  0.4284659452640638  0.8578661052639088  0.2500068191411129
  0.5714753622284638 -0.0009048745860231  0.2500023102536961
  0.5711298783634313  0.1420966734311795  0.2500010846908655
  0.5719014513726354  0.2847418224380578  0.2500021094773213
  0.5726666423059835  0.8553799686511534  0.2499939357924364
  0.7146791716274618 -0.0003784242454261  0.2499984608675367
  0.7137607064462448  0.1424649451891853  0.2499973650187765
  0.7143906865069570  0.2858204814102075  0.2499992393534139
  0.7176187127738767  0.4297150484067304  0.2500040345199480
  0.7208008699428803  0.5831679835226329  0.2500016285485590
  0.7194107756317909  0.8596952484850776  0.2499964470980885
  0.8584057982852842  0.0009923830449439  0.2499976545065488
  0.8559211700523736  0.1424518120517491  0.2499958502316902
  0.8560005885639457  0.2854778429444925  0.2499942648207641
  0.8580261061745550  0.4292708930897110  0.2500005294696612
  0.8571747443350204  0.5736526810001374  0.2500046655001371
  0.8647420074308731  0.7197343602961518  0.2500013496892760
  0.8624864159366050  0.8602489641030762  0.2500005072819104
  0.0464810923733791  0.0947863991805567  0.2499996619460160
  0.0431969617766038  0.2357012296639183  0.2499987271188317
  0.0448333808019729  0.3797186093088559  0.2499975781156130
  0.0474041774529873  0.5234372994976024  0.2499984233799490
  0.0486127597589942  0.6669520405809449  0.2500003736280834
  0.0502705913900574  0.8106034365423866  0.2500007371660266
  0.0495821671439379  0.9536370540415531  0.2500002421676760
  0.1891700951453003  0.0942530589454536  0.2499994538562835
  0.1851407914147579  0.2351080793021890  0.2499983450965799
  0.1826126098891999  0.3754720913604033  0.2499972150458091
  0.1900444415375127  0.5214800892345351  0.2499991662470790
  0.1894629371433731  0.6659426676372192  0.2500040646410439
  0.1915353755267116  0.8096772836776317  0.2500013894484919
  0.1916209903366420  0.9527082527589031  0.2500000826735722
  0.3329563988771423  0.0956034380685604  0.2499995269714601
  0.3282257188882291  0.2355954794159321  0.2499984523131965
  0.3263021178536381  0.5119754728046340  0.2500126610252201
  0.3300188792321922  0.6655158672612023  0.2499979945462779
  0.3331997698657236  0.8093625261257741  0.2500091148808287
  0.3337334404158819  0.9526611651500424  0.2500015211091583
  0.4760405197261984  0.0960740829357027  0.2500015916670937
  0.4750367974613723  0.2399475766491691  0.2500002322274636
  0.4758281410342007  0.8102973625610668  0.2499962411051553
  0.4764006807665445  0.9530052438544180  0.2500056449802181
  0.6185797868022014  0.0943050537084460  0.2500007061905534
  0.6191337871463412  0.2371447244669181  0.2500004844042594
  0.6260624843138292  0.3771145204835367  0.2499997679867182
  0.6267673755693470  0.8146650730070165  0.2499972774212892
  0.6195623441040601  0.9511073058515763  0.2499982243890853
  0.7612227857197618  0.0948858384812290  0.2499976939955809
  0.7612452479581646  0.2377009128679438  0.2499960725030629
  0.7637764772530501  0.3815121122114338  0.2500012413256821
  0.7601960402377181  0.5276625806291548  0.2500042071267093
  0.7716759358449137  0.6776925469423553  0.2500007859351081
  0.7679004193901651  0.8100921351160696  0.2499991464104604
  0.7641350572174103  0.9537723756856115  0.2499964093737125
  0.9037323707737279  0.0949531329060701  0.2499976627412517
  0.9027600173616253  0.2374197175800232  0.2499940482698162
  0.9041624610653478  0.3809648019124575  0.2499998635009405
  0.9044539023057175  0.5249208396997501  0.2500028732707848
  0.9079004661986806  0.6686572935829610  0.2500031352476856
  0.9105465194127502  0.8136030805774350  0.2500008662637257
  0.9069974279161415  0.9541654243068456  0.2499989851077877
  0.4517581485729479  0.3678781242080715  0.2500117432577966
  0.4127458436621868  0.5336158529663095  0.2500625324974189
  0.6342655598556423  0.5613027376006032  0.2499972709320742
  0.5869909879693506  0.4250594987990025  0.2499883035944929
  0.5954868377503019  0.7273270250608532  0.2499981139039799
  0.4603317662386734  0.6695225818320176  0.2499447467820682
  0.7256850521327702  0.7214664344730106  0.2499985460044152
  0.3217495634365364  0.3738719963705024  0.2499984714271064
 
  0.00000000E+00  0.00000000E+00  0.00000000E+00
  0.00000000E+00  0.00000000E+00  0.00000000E+00
  0.00000000E+00  0.00000000E+00  0.00000000E+00
  0.00000000E+00  0.00000000E+00  0.00000000E+00
  0.00000000E+00  0.00000000E+00  0.00000000E+00
  0.00000000E+00  0.00000000E+00  0.00000000E+00
  0.00000000E+00  0.00000000E+00  0.00000000E+00
  0.00000000E+00  0.00000000E+00  0.00000000E+00
  0.00000000E+00  0.00000000E+00  0.00000000E+00
  0.00000000E+00  0.00000000E+00  0.00000000E+00
  0.00000000E+00  0.00000000E+00  0.00000000E+00
  0.00000000E+00  0.00000000E+00  0.00000000E+00
  0.00000000E+00  0.00000000E+00  0.00000000E+00
  0.00000000E+00  0.00000000E+00  0.00000000E+00
  0.00000000E+00  0.00000000E+00  0.00000000E+00
  0.00000000E+00  0.00000000E+00  0.00000000E+00
  0.00000000E+00  0.00000000E+00  0.00000000E+00
  0.00000000E+00  0.00000000E+00  0.00000000E+00
  0.00000000E+00  0.00000000E+00  0.00000000E+00
  0.00000000E+00  0.00000000E+00  0.00000000E+00
  0.00000000E+00  0.00000000E+00  0.00000000E+00
  0.00000000E+00  0.00000000E+00  0.00000000E+00
  0.00000000E+00  0.00000000E+00  0.00000000E+00
  0.00000000E+00  0.00000000E+00  0.00000000E+00
  0.00000000E+00  0.00000000E+00  0.00000000E+00
  0.00000000E+00  0.00000000E+00  0.00000000E+00
  0.00000000E+00  0.00000000E+00  0.00000000E+00
  0.00000000E+00  0.00000000E+00  0.00000000E+00
  0.00000000E+00  0.00000000E+00  0.00000000E+00
  0.00000000E+00  0.00000000E+00  0.00000000E+00
  0.00000000E+00  0.00000000E+00  0.00000000E+00
  0.00000000E+00  0.00000000E+00  0.00000000E+00
  0.00000000E+00  0.00000000E+00  0.00000000E+00
  0.00000000E+00  0.00000000E+00  0.00000000E+00
  0.00000000E+00  0.00000000E+00  0.00000000E+00
  0.00000000E+00  0.00000000E+00  0.00000000E+00
  0.00000000E+00  0.00000000E+00  0.00000000E+00
  0.00000000E+00  0.00000000E+00  0.00000000E+00
  0.00000000E+00  0.00000000E+00  0.00000000E+00
  0.00000000E+00  0.00000000E+00  0.00000000E+00
  0.00000000E+00  0.00000000E+00  0.00000000E+00
  0.00000000E+00  0.00000000E+00  0.00000000E+00
  0.00000000E+00  0.00000000E+00  0.00000000E+00
  0.00000000E+00  0.00000000E+00  0.00000000E+00
  0.00000000E+00  0.00000000E+00  0.00000000E+00
  0.00000000E+00  0.00000000E+00  0.00000000E+00
  0.00000000E+00  0.00000000E+00  0.00000000E+00
  0.00000000E+00  0.00000000E+00  0.00000000E+00
  0.00000000E+00  0.00000000E+00  0.00000000E+00
  0.00000000E+00  0.00000000E+00  0.00000000E+00
  0.00000000E+00  0.00000000E+00  0.00000000E+00
  0.00000000E+00  0.00000000E+00  0.00000000E+00
  0.00000000E+00  0.00000000E+00  0.00000000E+00
  0.00000000E+00  0.00000000E+00  0.00000000E+00
  0.00000000E+00  0.00000000E+00  0.00000000E+00
  0.00000000E+00  0.00000000E+00  0.00000000E+00
  0.00000000E+00  0.00000000E+00  0.00000000E+00
  0.00000000E+00  0.00000000E+00  0.00000000E+00
  0.00000000E+00  0.00000000E+00  0.00000000E+00
  0.00000000E+00  0.00000000E+00  0.00000000E+00
  0.00000000E+00  0.00000000E+00  0.00000000E+00
  0.00000000E+00  0.00000000E+00  0.00000000E+00
  0.00000000E+00  0.00000000E+00  0.00000000E+00
  0.00000000E+00  0.00000000E+00  0.00000000E+00
  0.00000000E+00  0.00000000E+00  0.00000000E+00
  0.00000000E+00  0.00000000E+00  0.00000000E+00
  0.00000000E+00  0.00000000E+00  0.00000000E+00
  0.00000000E+00  0.00000000E+00  0.00000000E+00
  0.00000000E+00  0.00000000E+00  0.00000000E+00
  0.00000000E+00  0.00000000E+00  0.00000000E+00
  0.00000000E+00  0.00000000E+00  0.00000000E+00
  0.00000000E+00  0.00000000E+00  0.00000000E+00
  0.00000000E+00  0.00000000E+00  0.00000000E+00
  0.00000000E+00  0.00000000E+00  0.00000000E+00
  0.00000000E+00  0.00000000E+00  0.00000000E+00
  0.00000000E+00  0.00000000E+00  0.00000000E+00
  0.00000000E+00  0.00000000E+00  0.00000000E+00
  0.00000000E+00  0.00000000E+00  0.00000000E+00
  0.00000000E+00  0.00000000E+00  0.00000000E+00
  0.00000000E+00  0.00000000E+00  0.00000000E+00
  0.00000000E+00  0.00000000E+00  0.00000000E+00
  0.00000000E+00  0.00000000E+00  0.00000000E+00
  0.00000000E+00  0.00000000E+00  0.00000000E+00
  0.00000000E+00  0.00000000E+00  0.00000000E+00
  0.00000000E+00  0.00000000E+00  0.00000000E+00
  0.00000000E+00  0.00000000E+00  0.00000000E+00
  0.00000000E+00  0.00000000E+00  0.00000000E+00
  0.00000000E+00  0.00000000E+00  0.00000000E+00
  0.00000000E+00  0.00000000E+00  0.00000000E+00
  0.00000000E+00  0.00000000E+00  0.00000000E+00
  0.00000000E+00  0.00000000E+00  0.00000000E+00
  0.00000000E+00  0.00000000E+00  0.00000000E+00
  0.00000000E+00  0.00000000E+00  0.00000000E+00
  0.00000000E+00  0.00000000E+00  0.00000000E+00
