C4                                      
    1.000000000000000     
    17.2710380553999983    0.0000000000000000    0.0000000000000000
    -8.6355190276999991   14.9571577057000002    0.0000000000000000
     0.0000000000000000    0.0000000000000000   15.0000000000000000
   C    F    N    H    O 
    86     6     2     2     1
Selective dynamics
Direct
 -0.0018669746459642 -0.0012452801226874  0.5027682854536250   T   T   T
  0.9972794756666982  0.1410444887375565  0.5057143866421302   T   T   T
  0.9973903514974515  0.2841328375192627  0.5057341385173540   T   T   T
  0.9977283452544754  0.4272244706916138  0.5048493724150869   T   T   T
  0.9980251568655796  0.5702834261214788  0.5010588229471212   T   T   T
 -0.0007169624410693  0.7136139866119378  0.4989993559800217   T   T   T
 -0.0001881570001846  0.8570122988150072  0.4996584120073356   T   T   T
  0.1415194491018032 -0.0005609692263587  0.4937164972158294   T   T   T
  0.1406355817731007  0.1417204745425771  0.5004124000685640   T   T   T
  0.1399148681923375  0.2841456534295824  0.5009052786872553   T   T   T
  0.1406627928450722  0.4277260845335178  0.4992589970885630   T   T   T
  0.1409849288430725  0.5702069371374102  0.4975900395541710   T   T   T
  0.1411693386034319  0.7131443977587461  0.4941129832668712   T   T   T
  0.1415549510932080  0.8563337283070791  0.4924644834988356   T   T   T
  0.2839836101457389 -0.0012211212006525  0.4922761859723574   T   T   T
  0.2839365592452536  0.1414125917838459  0.4950794864618306   T   T   T
  0.2833591095317319  0.2847393379310712  0.4983005889544064   T   T   T
  0.2819220345079261  0.4266431907899226  0.4861370366278963   T   T   T
  0.2854369837487862  0.5716828917853772  0.4920204708366627   T   T   T
  0.2835624749286784  0.7138807260714182  0.4946461370180916   T   T   T
  0.2836548526560074  0.8563906852913633  0.4924734453527004   T   T   T
  0.4268555542679068 -0.0014275387843370  0.4962424520477096   T   T   T
  0.4265390132864955  0.1409820964462452  0.4984761683900558   T   T   T
  0.4222898999052073  0.2764165291396538  0.5248869119115571   T   T   T
  0.4257054439943761  0.8555368755913468  0.4993794178912908   T   T   T
  0.5690024089062765  0.9973921843016323  0.5048253651865620   T   T   T
  0.5694131278568748  0.1406222143563093  0.5068208205424835   T   T   T
  0.5699397644793243  0.2837342514168271  0.5070543617711548   T   T   T
  0.5671592988718025  0.8526710954551898  0.5122099250024869   T   T   T
  0.7111647662804520  0.9962874480330299  0.5112138916239314   T   T   T
  0.7120506808412546  0.1404798798925395  0.5097416652593494   T   T   T
  0.7124640858490205  0.2841776340953650  0.5119161829125172   T   T   T
  0.7124868410782751  0.4279400784346519  0.5106028961909881   T   T   T
  0.7199661408310107  0.5766044784405838  0.5346561752079397   T   T   T
  0.7114938386237685  0.8527433676661845  0.5204950067321413   T   T   T
  0.8544610399674745  0.9975653695543149  0.5106652017330178   T   T   T
  0.8542887457073980  0.1405248024640130  0.5093219185993235   T   T   T
  0.8547912070616828  0.2839429604610927  0.5098978482156348   T   T   T
  0.8552296227108388  0.4274272117128012  0.5110254358725815   T   T   T
  0.8558595075101256  0.5713754590979270  0.5077560686002213   T   T   T
  0.8588098333783850  0.7152570034078550  0.5116641863558501   T   T   T
  0.8567264874325616  0.8559493363142426  0.5126955078689001   T   T   T
  0.0454659933153646  0.0939798589730283  0.5029341489423378   T   T   T
  0.0445969340678177  0.2362252671691673  0.5043035497275151   T   T   T
  0.0451307045719806  0.3796111442601069  0.5036684421166185   T   T   T
  0.0456687074627663  0.5225130747087320  0.5012686375213099   T   T   T
  0.0460761767939011  0.6655785620430874  0.4972700851757341   T   T   T
  0.0466503421894512  0.8087844150529759  0.4962540980096962   T   T   T
  0.0464155312955468  0.9518290524170363  0.4981481640436517   T   T   T
  0.1886229855752674  0.0942739419817024  0.4946072518745762   T   T   T
  0.1876276577212808  0.2367973725967031  0.5013738552920172   T   T   T
  0.1869936222477402  0.3792093872030445  0.4969340418531102   T   T   T
  0.1891218606613455  0.5231718740963596  0.4963835584960132   T   T   T
  0.1884231933502531  0.6655746853747310  0.4946396257664061   T   T   T
  0.1887806258039768  0.8085394546949173  0.4921757075784425   T   T   T
  0.1890010240132740  0.9514739908221201  0.4917982219617910   T   T   T
  0.3315070130306372  0.0938443474606219  0.4949427329851714   T   T   T
  0.3312798651933123  0.2361664524676757  0.5046484661656576   T   T   T
  0.3254431859901313  0.3760241001914073  0.4806958893499652   T   T   T
  0.3277312183045889  0.5211972093767008  0.4841292920922872   T   T   T
  0.3344309653439314  0.6695639737959249  0.4957573600015104   T   T   T
  0.3309892603570080  0.8087003947734265  0.4949025114698563   T   T   T
  0.3315149355585195  0.9512751509363561  0.4928145353978002   T   T   T
  0.4745503475626939  0.0935756536380661  0.4991827885123690   T   T   T
  0.4737929052567659  0.2355882410920294  0.5085381380573688   T   T   T
  0.4697453660593440  0.8044395326920986  0.5048709590663315   T   T   T
  0.4740797500475110  0.9507218943589028  0.5000419342497088   T   T   T
  0.6167621183092895  0.0927091163158262  0.5073551884089399   T   T   T
  0.6173777111293433  0.2360834069010631  0.5108198566270292   T   T   T
  0.6206142665378399  0.3768616838202456  0.4944289261629184   T   T   T
  0.6175067160792976  0.8093517877224939  0.5232897734991255   T   T   T
  0.6157269412236673  0.9484929958593269  0.5088730680947217   T   T   T
  0.7590798542308436  0.0922760487542088  0.5100610474900892   T   T   T
  0.7597190359842302  0.2359889107791447  0.5106779473551183   T   T   T
  0.7599431445028382  0.3796911169913118  0.5139326574344232   T   T   T
  0.7601419857946723  0.5250318704329682  0.5161644771072617   T   T   T
  0.7651400204603718  0.6713640244275018  0.5263507138108866   T   T   T
  0.7612719417184223  0.8044363933204675  0.5225135383931673   T   T   T
  0.7589105398437380  0.9485777722571425  0.5137873741104166   T   T   T
  0.9018219815742946  0.0927758492379415  0.5085141625538123   T   T   T
  0.9020458353809017  0.2360521082826838  0.5084614520662790   T   T   T
  0.9024064859094372  0.3795524477437613  0.5090242855928108   T   T   T
  0.9027375745060908  0.5229169429340578  0.5057659752512378   T   T   T
  0.9044562418198601  0.6662979466979959  0.5057412095531543   T   T   T
  0.9052321486061523  0.8097200995230505  0.5075351835492109   T   T   T
  0.9029965066569686  0.9507994016585892  0.5085464103297413   T   T   T
  0.4612878121026929  0.3555820139163911  0.5684478945502796   T   T   T
  0.4113980676729511  0.4178052917741344  0.4530074295976299   T   T   T
  0.4171116812376533  0.5630661830175769  0.4764962100991694   T   T   T
  0.6353840945078865  0.5373883831136225  0.5652743495019322   T   T   T
  0.5792819725359991  0.4175285344097372  0.4571698762618763   T   T   T
  0.5724329999675823  0.7211160383978359  0.5382428459706703   T   T   T
  0.4238001144976779  0.7145084873004903  0.5015669782782362   T   T   T
  0.7185521343285877  0.7152763924873035  0.5314622402941060   T   T   T
  0.6171225053728019  0.6399645676183123  0.4504267020495403   T   T   T
  0.5364367976973854  0.5567658699266845  0.4102729818232276   T   T   T
  0.5959010867824258  0.6048739973946604  0.3953361829999977   T   T   F
 
  0.00000000E+00  0.00000000E+00  0.00000000E+00
  0.00000000E+00  0.00000000E+00  0.00000000E+00
  0.00000000E+00  0.00000000E+00  0.00000000E+00
  0.00000000E+00  0.00000000E+00  0.00000000E+00
  0.00000000E+00  0.00000000E+00  0.00000000E+00
  0.00000000E+00  0.00000000E+00  0.00000000E+00
  0.00000000E+00  0.00000000E+00  0.00000000E+00
  0.00000000E+00  0.00000000E+00  0.00000000E+00
  0.00000000E+00  0.00000000E+00  0.00000000E+00
  0.00000000E+00  0.00000000E+00  0.00000000E+00
  0.00000000E+00  0.00000000E+00  0.00000000E+00
  0.00000000E+00  0.00000000E+00  0.00000000E+00
  0.00000000E+00  0.00000000E+00  0.00000000E+00
  0.00000000E+00  0.00000000E+00  0.00000000E+00
  0.00000000E+00  0.00000000E+00  0.00000000E+00
  0.00000000E+00  0.00000000E+00  0.00000000E+00
  0.00000000E+00  0.00000000E+00  0.00000000E+00
  0.00000000E+00  0.00000000E+00  0.00000000E+00
  0.00000000E+00  0.00000000E+00  0.00000000E+00
  0.00000000E+00  0.00000000E+00  0.00000000E+00
  0.00000000E+00  0.00000000E+00  0.00000000E+00
  0.00000000E+00  0.00000000E+00  0.00000000E+00
  0.00000000E+00  0.00000000E+00  0.00000000E+00
  0.00000000E+00  0.00000000E+00  0.00000000E+00
  0.00000000E+00  0.00000000E+00  0.00000000E+00
  0.00000000E+00  0.00000000E+00  0.00000000E+00
  0.00000000E+00  0.00000000E+00  0.00000000E+00
  0.00000000E+00  0.00000000E+00  0.00000000E+00
  0.00000000E+00  0.00000000E+00  0.00000000E+00
  0.00000000E+00  0.00000000E+00  0.00000000E+00
  0.00000000E+00  0.00000000E+00  0.00000000E+00
  0.00000000E+00  0.00000000E+00  0.00000000E+00
  0.00000000E+00  0.00000000E+00  0.00000000E+00
  0.00000000E+00  0.00000000E+00  0.00000000E+00
  0.00000000E+00  0.00000000E+00  0.00000000E+00
  0.00000000E+00  0.00000000E+00  0.00000000E+00
  0.00000000E+00  0.00000000E+00  0.00000000E+00
  0.00000000E+00  0.00000000E+00  0.00000000E+00
  0.00000000E+00  0.00000000E+00  0.00000000E+00
  0.00000000E+00  0.00000000E+00  0.00000000E+00
  0.00000000E+00  0.00000000E+00  0.00000000E+00
  0.00000000E+00  0.00000000E+00  0.00000000E+00
  0.00000000E+00  0.00000000E+00  0.00000000E+00
  0.00000000E+00  0.00000000E+00  0.00000000E+00
  0.00000000E+00  0.00000000E+00  0.00000000E+00
  0.00000000E+00  0.00000000E+00  0.00000000E+00
  0.00000000E+00  0.00000000E+00  0.00000000E+00
  0.00000000E+00  0.00000000E+00  0.00000000E+00
  0.00000000E+00  0.00000000E+00  0.00000000E+00
  0.00000000E+00  0.00000000E+00  0.00000000E+00
  0.00000000E+00  0.00000000E+00  0.00000000E+00
  0.00000000E+00  0.00000000E+00  0.00000000E+00
  0.00000000E+00  0.00000000E+00  0.00000000E+00
  0.00000000E+00  0.00000000E+00  0.00000000E+00
  0.00000000E+00  0.00000000E+00  0.00000000E+00
  0.00000000E+00  0.00000000E+00  0.00000000E+00
  0.00000000E+00  0.00000000E+00  0.00000000E+00
  0.00000000E+00  0.00000000E+00  0.00000000E+00
  0.00000000E+00  0.00000000E+00  0.00000000E+00
  0.00000000E+00  0.00000000E+00  0.00000000E+00
  0.00000000E+00  0.00000000E+00  0.00000000E+00
  0.00000000E+00  0.00000000E+00  0.00000000E+00
  0.00000000E+00  0.00000000E+00  0.00000000E+00
  0.00000000E+00  0.00000000E+00  0.00000000E+00
  0.00000000E+00  0.00000000E+00  0.00000000E+00
  0.00000000E+00  0.00000000E+00  0.00000000E+00
  0.00000000E+00  0.00000000E+00  0.00000000E+00
  0.00000000E+00  0.00000000E+00  0.00000000E+00
  0.00000000E+00  0.00000000E+00  0.00000000E+00
  0.00000000E+00  0.00000000E+00  0.00000000E+00
  0.00000000E+00  0.00000000E+00  0.00000000E+00
  0.00000000E+00  0.00000000E+00  0.00000000E+00
  0.00000000E+00  0.00000000E+00  0.00000000E+00
  0.00000000E+00  0.00000000E+00  0.00000000E+00
  0.00000000E+00  0.00000000E+00  0.00000000E+00
  0.00000000E+00  0.00000000E+00  0.00000000E+00
  0.00000000E+00  0.00000000E+00  0.00000000E+00
  0.00000000E+00  0.00000000E+00  0.00000000E+00
  0.00000000E+00  0.00000000E+00  0.00000000E+00
  0.00000000E+00  0.00000000E+00  0.00000000E+00
  0.00000000E+00  0.00000000E+00  0.00000000E+00
  0.00000000E+00  0.00000000E+00  0.00000000E+00
  0.00000000E+00  0.00000000E+00  0.00000000E+00
  0.00000000E+00  0.00000000E+00  0.00000000E+00
  0.00000000E+00  0.00000000E+00  0.00000000E+00
  0.00000000E+00  0.00000000E+00  0.00000000E+00
  0.00000000E+00  0.00000000E+00  0.00000000E+00
  0.00000000E+00  0.00000000E+00  0.00000000E+00
  0.00000000E+00  0.00000000E+00  0.00000000E+00
  0.00000000E+00  0.00000000E+00  0.00000000E+00
  0.00000000E+00  0.00000000E+00  0.00000000E+00
  0.00000000E+00  0.00000000E+00  0.00000000E+00
  0.00000000E+00  0.00000000E+00  0.00000000E+00
  0.00000000E+00  0.00000000E+00  0.00000000E+00
  0.00000000E+00  0.00000000E+00  0.00000000E+00
  0.00000000E+00  0.00000000E+00  0.00000000E+00
  0.00000000E+00  0.00000000E+00  0.00000000E+00
