C4                                      
    1.000000000000000     
    17.2710380553999983    0.0000000000000000    0.0000000000000000
    -8.6355190276999991   14.9571577057000002    0.0000000000000000
     0.0000000000000000    0.0000000000000000   15.0000000000000000
   C    F    N    H    O 
    86     6     2     2     1
Selective dynamics
Direct
  0.0018889886233920  0.0007044397250098  0.5006719457909642   T   T   T
  0.0009757258166803  0.1429113364044486  0.5040393009626183   T   T   T
  0.0008118577843821  0.2858480555662078  0.5042294145759704   T   T   T
  0.0009828638468976  0.4288517876233058  0.5038076217620201   T   T   T
  0.0012929914861738  0.5718938176217486  0.4993682903288874   T   T   T
  0.0026209514569830  0.7153134798928567  0.4967699813365983   T   T   T
  0.0034415458423373  0.8588310528063310  0.4975279300880547   T   T   T
  0.1451485231673886  0.0013411878894426  0.4921630006921788   T   T   T
  0.1444143968150134  0.1438263730844619  0.4958384331723831   T   T   T
  0.1433673327181486  0.2860706555197934  0.4942170353108004   T   T   T
  0.1437199225284793  0.4292773235859809  0.4926756714659978   T   T   T
  0.1441522811378534  0.5717850085672309  0.4941419437068030   T   T   T
  0.1444278348018312  0.7147736028131263  0.4926033090483678   T   T   T
  0.1450098615335652  0.8580865702316991  0.4918535900503315   T   T   T
  0.2873613761250545  0.0004814471011974  0.4906984265899947   T   T   T
  0.2875282195361867  0.1434125774188005  0.4887191837125341   T   T   T
  0.2868110397099500  0.2870905786868162  0.4852135050456088   T   T   T
  0.2837903184006751  0.4278809796062632  0.4670207503441237   T   T   T
  0.2876582105982131  0.5728628750204928  0.4769024874378539   T   T   T
  0.2866639474967137  0.7152302455239670  0.4884613609619927   T   T   T
  0.2869263096778606  0.8579076373237912  0.4912023362321290   T   T   T
  0.4301121572345727 -0.0000923923157347  0.4947636873282113   T   T   T
  0.4300008955598156  0.1425161399464978  0.4926686971711408   T   T   T
  0.4265560814133972  0.2796191872698773  0.5105989110268616   T   T   T
  0.4289009245974603  0.8566765988069425  0.4944666298087423   T   T   T
  0.5722241789472244  0.9986841853561678  0.5036904858817808   T   T   T
  0.5726802616073039  0.1419957720608962  0.5041967701139302   T   T   T
  0.5735008557200499  0.2851072428203302  0.4964301084160881   T   T   T
  0.5703954150683291  0.8537099512713925  0.5019776784045366   T   T   T
  0.7144608411182644  0.9976743672256740  0.5087978930408819   T   T   T
  0.7152987528429657  0.1418834460658961  0.5098154185159568   T   T   T
  0.7156915154465662  0.2855857700214950  0.5083227190620166   T   T   T
  0.7156269704658338  0.4291850959728332  0.4997320136027653   T   T   T
  0.7219782112633660  0.5777978603498219  0.5194873820448055   T   T   T
  0.7149555082048803  0.8542096113401358  0.5097390368454602   T   T   T
  0.8581017804489232 -0.0006601005198709  0.5082104126930145   T   T   T
  0.8577592865115335  0.1421629892766765  0.5093130473327778   T   T   T
  0.8581415761489232  0.2855274549095039  0.5099114624836014   T   T   T
  0.8583444298043265  0.4289776964028100  0.5082938449930434   T   T   T
  0.8590181653287239  0.5729033564522706  0.5015952288581583   T   T   T
  0.8619074698896332  0.7168528363675014  0.5042728319695964   T   T   T
  0.8602385485125570  0.8576283618432199  0.5063622044699269   T   T   T
  0.0492606910841722  0.0959691195576418  0.5005551613470677   T   T   T
  0.0481810084807617  0.2381088113987625  0.5015509299488667   T   T   T
  0.0484386341529681  0.3812603177272719  0.5011544397707185   T   T   T
  0.0489120162449356  0.5241257336166603  0.4996954579380637   T   T   T
  0.0493367842332101  0.6672091838802086  0.4957539869861516   T   T   T
  0.0501305536189080  0.8105226837947203  0.4948590202163384   T   T   T
  0.0500861062292147  0.9536802704463117  0.4965761133185311   T   T   T
  0.1922848353523086  0.0962281176159036  0.4907254050395493   T   T   T
  0.1913386228833991  0.2389938822922917  0.4932267267800301   T   T   T
  0.1901602683493790  0.3809777860292055  0.4866715661389941   T   T   T
  0.1920856988501710  0.5246513352733587  0.4891634947541070   T   T   T
  0.1915709175221579  0.6671006173184272  0.4910759844631227   T   T   T
  0.1920947309523749  0.8101848388029316  0.4912702608995093   T   T   T
  0.1924574008782677  0.9532307590357312  0.4908399926812031   T   T   T
  0.3349698515327602  0.0956461648303377  0.4906580453975302   T   T   T
  0.3350094070468532  0.2387193178614895  0.4930904669015914   T   T   T
  0.3275821331371510  0.3773801056761096  0.4618669794830427   T   T   T
  0.3281198201518242  0.5221720836284535  0.4573852619873735   T   T   T
  0.3372540428752011  0.6707007213557968  0.4837751723249588   T   T   T
  0.3341452242597218  0.8100268520717911  0.4911937885036583   T   T   T
  0.3347887405157616  0.9528082003041788  0.4916993830259458   T   T   T
  0.4778646195188230  0.0949433016517044  0.4961841513237036   T   T   T
  0.4774255569264480  0.2374751211359023  0.4978276480223015   T   T   T
  0.4729034812978495  0.8053351729979505  0.4951050067463471   T   T   T
  0.4773176964778825  0.9519410830212525  0.4978850642338581   T   T   T
  0.6199611059524912  0.0940465539257293  0.5069482943844378   T   T   T
  0.6206789789704860  0.2375356030167697  0.5054306936383016   T   T   T
  0.6245490588586019  0.3775547094541292  0.4801813893934481   T   T   T
  0.6211893989391590  0.8103641550055782  0.5049363363665360   T   T   T
  0.6189373340152226  0.9497198141198919  0.5054099259390978   T   T   T
  0.7624535884222587  0.0937724732129146  0.5099360296460580   T   T   T
  0.7630438022607682  0.2374750828974560  0.5101195925023702   T   T   T
  0.7630134290438711  0.3811239978934222  0.5084707877885808   T   T   T
  0.7629532573761570  0.5263375062262594  0.5050958906228715   T   T   T
  0.7675059487652588  0.6727444310337323  0.5146216411394342   T   T   T
  0.7644784999133374  0.8057534988798187  0.5121518358823339   T   T   T
  0.7624684677564930  0.9502214967530511  0.5094164437517612   T   T   T
  0.9055005481488750  0.0945668813328545  0.5075928199040567   T   T   T
  0.9054867395960564  0.2377119636169663  0.5085089563500547   T   T   T
  0.9056559279101817  0.3811562755668275  0.5083486782480311   T   T   T
  0.9059420606892206  0.5244841238025187  0.5025310845279983   T   T   T
  0.9076272201188378  0.6679093288438619  0.5005752873212863   T   T   T
  0.9087297442617667  0.8114014316242842  0.5025489615572288   T   T   T
  0.9066550582698041  0.9526032200930282  0.5050552045347791   T   T   T
  0.4672802066220506  0.3615891625059021  0.5490419044903018   T   T   T
  0.4121397470830648  0.4181447706957109  0.4309773197158211   T   T   T
  0.4125294972986655  0.5639338422033334  0.4272338192554749   T   T   T
  0.6346027501795026  0.5376674558402361  0.5418885417474956   T   T   T
  0.5845687196122556  0.4165722335639467  0.4363772695548911   T   T   T
  0.5768146301860668  0.7206867241172910  0.5011773711003004   T   T   T
  0.4267951248685890  0.7153386749984811  0.4885292103841408   T   T   T
  0.7209608076816310  0.7165191452449523  0.5192738768067376   T   T   T
  0.4930322778735699  0.6003439547738642  0.5770532726357360   T   T   T
  0.4980943118770203  0.5155223403125364  0.5923335306402645   T   T   T
  0.4606311576377605  0.5415093941829415  0.6046639079999991   T   T   F
 
  0.00000000E+00  0.00000000E+00  0.00000000E+00
  0.00000000E+00  0.00000000E+00  0.00000000E+00
  0.00000000E+00  0.00000000E+00  0.00000000E+00
  0.00000000E+00  0.00000000E+00  0.00000000E+00
  0.00000000E+00  0.00000000E+00  0.00000000E+00
  0.00000000E+00  0.00000000E+00  0.00000000E+00
  0.00000000E+00  0.00000000E+00  0.00000000E+00
  0.00000000E+00  0.00000000E+00  0.00000000E+00
  0.00000000E+00  0.00000000E+00  0.00000000E+00
  0.00000000E+00  0.00000000E+00  0.00000000E+00
  0.00000000E+00  0.00000000E+00  0.00000000E+00
  0.00000000E+00  0.00000000E+00  0.00000000E+00
  0.00000000E+00  0.00000000E+00  0.00000000E+00
  0.00000000E+00  0.00000000E+00  0.00000000E+00
  0.00000000E+00  0.00000000E+00  0.00000000E+00
  0.00000000E+00  0.00000000E+00  0.00000000E+00
  0.00000000E+00  0.00000000E+00  0.00000000E+00
  0.00000000E+00  0.00000000E+00  0.00000000E+00
  0.00000000E+00  0.00000000E+00  0.00000000E+00
  0.00000000E+00  0.00000000E+00  0.00000000E+00
  0.00000000E+00  0.00000000E+00  0.00000000E+00
  0.00000000E+00  0.00000000E+00  0.00000000E+00
  0.00000000E+00  0.00000000E+00  0.00000000E+00
  0.00000000E+00  0.00000000E+00  0.00000000E+00
  0.00000000E+00  0.00000000E+00  0.00000000E+00
  0.00000000E+00  0.00000000E+00  0.00000000E+00
  0.00000000E+00  0.00000000E+00  0.00000000E+00
  0.00000000E+00  0.00000000E+00  0.00000000E+00
  0.00000000E+00  0.00000000E+00  0.00000000E+00
  0.00000000E+00  0.00000000E+00  0.00000000E+00
  0.00000000E+00  0.00000000E+00  0.00000000E+00
  0.00000000E+00  0.00000000E+00  0.00000000E+00
  0.00000000E+00  0.00000000E+00  0.00000000E+00
  0.00000000E+00  0.00000000E+00  0.00000000E+00
  0.00000000E+00  0.00000000E+00  0.00000000E+00
  0.00000000E+00  0.00000000E+00  0.00000000E+00
  0.00000000E+00  0.00000000E+00  0.00000000E+00
  0.00000000E+00  0.00000000E+00  0.00000000E+00
  0.00000000E+00  0.00000000E+00  0.00000000E+00
  0.00000000E+00  0.00000000E+00  0.00000000E+00
  0.00000000E+00  0.00000000E+00  0.00000000E+00
  0.00000000E+00  0.00000000E+00  0.00000000E+00
  0.00000000E+00  0.00000000E+00  0.00000000E+00
  0.00000000E+00  0.00000000E+00  0.00000000E+00
  0.00000000E+00  0.00000000E+00  0.00000000E+00
  0.00000000E+00  0.00000000E+00  0.00000000E+00
  0.00000000E+00  0.00000000E+00  0.00000000E+00
  0.00000000E+00  0.00000000E+00  0.00000000E+00
  0.00000000E+00  0.00000000E+00  0.00000000E+00
  0.00000000E+00  0.00000000E+00  0.00000000E+00
  0.00000000E+00  0.00000000E+00  0.00000000E+00
  0.00000000E+00  0.00000000E+00  0.00000000E+00
  0.00000000E+00  0.00000000E+00  0.00000000E+00
  0.00000000E+00  0.00000000E+00  0.00000000E+00
  0.00000000E+00  0.00000000E+00  0.00000000E+00
  0.00000000E+00  0.00000000E+00  0.00000000E+00
  0.00000000E+00  0.00000000E+00  0.00000000E+00
  0.00000000E+00  0.00000000E+00  0.00000000E+00
  0.00000000E+00  0.00000000E+00  0.00000000E+00
  0.00000000E+00  0.00000000E+00  0.00000000E+00
  0.00000000E+00  0.00000000E+00  0.00000000E+00
  0.00000000E+00  0.00000000E+00  0.00000000E+00
  0.00000000E+00  0.00000000E+00  0.00000000E+00
  0.00000000E+00  0.00000000E+00  0.00000000E+00
  0.00000000E+00  0.00000000E+00  0.00000000E+00
  0.00000000E+00  0.00000000E+00  0.00000000E+00
  0.00000000E+00  0.00000000E+00  0.00000000E+00
  0.00000000E+00  0.00000000E+00  0.00000000E+00
  0.00000000E+00  0.00000000E+00  0.00000000E+00
  0.00000000E+00  0.00000000E+00  0.00000000E+00
  0.00000000E+00  0.00000000E+00  0.00000000E+00
  0.00000000E+00  0.00000000E+00  0.00000000E+00
  0.00000000E+00  0.00000000E+00  0.00000000E+00
  0.00000000E+00  0.00000000E+00  0.00000000E+00
  0.00000000E+00  0.00000000E+00  0.00000000E+00
  0.00000000E+00  0.00000000E+00  0.00000000E+00
  0.00000000E+00  0.00000000E+00  0.00000000E+00
  0.00000000E+00  0.00000000E+00  0.00000000E+00
  0.00000000E+00  0.00000000E+00  0.00000000E+00
  0.00000000E+00  0.00000000E+00  0.00000000E+00
  0.00000000E+00  0.00000000E+00  0.00000000E+00
  0.00000000E+00  0.00000000E+00  0.00000000E+00
  0.00000000E+00  0.00000000E+00  0.00000000E+00
  0.00000000E+00  0.00000000E+00  0.00000000E+00
  0.00000000E+00  0.00000000E+00  0.00000000E+00
  0.00000000E+00  0.00000000E+00  0.00000000E+00
  0.00000000E+00  0.00000000E+00  0.00000000E+00
  0.00000000E+00  0.00000000E+00  0.00000000E+00
  0.00000000E+00  0.00000000E+00  0.00000000E+00
  0.00000000E+00  0.00000000E+00  0.00000000E+00
  0.00000000E+00  0.00000000E+00  0.00000000E+00
  0.00000000E+00  0.00000000E+00  0.00000000E+00
  0.00000000E+00  0.00000000E+00  0.00000000E+00
  0.00000000E+00  0.00000000E+00  0.00000000E+00
  0.00000000E+00  0.00000000E+00  0.00000000E+00
  0.00000000E+00  0.00000000E+00  0.00000000E+00
  0.00000000E+00  0.00000000E+00  0.00000000E+00
