C    F    N    H    O                   
    1.000000000000000     
    17.2710380553999983    0.0000000000000000    0.0000000000000000
    -8.6355190276999991   14.9571577057000002    0.0000000000000000
     0.0000000000000000    0.0000000000000000   15.0000000000000000
   C    F    N    H    O 
    82     2     6     2     1
Selective dynamics
Direct
  0.9998886799030680  0.9999085936427550  0.4949652738208932   T   T   T
  0.0001748926889458  0.1429632825019389  0.4952211548441213   T   T   T
  0.0001429910768304  0.2858560595269701  0.4964729198052028   T   T   T
  0.9997610134421089  0.4287814254068344  0.4975195603765643   T   T   T
  0.0001301718060912  0.5715552724729789  0.4975931347050302   T   T   T
  0.0010945155898543  0.7145881788162404  0.4970901350641616   T   T   T
  0.0002185813091419  0.8574495132908898  0.4957329531957251   T   T   T
  0.1436987327010900  0.0010026573002555  0.4946154192802955   T   T   T
  0.1442043926891937  0.1443184107873030  0.4931148187600369   T   T   T
  0.1437653416886882  0.2864006375224364  0.4928334030855478   T   T   T
  0.1427602659203295  0.4291728903859412  0.4948156451785226   T   T   T
  0.1438169268264365  0.5716785066135746  0.4963960841734525   T   T   T
  0.1440519688920985  0.7143800823159947  0.4971348197418992   T   T   T
  0.1436047745539775  0.8576305244411170  0.4965124966905151   T   T   T
  0.2864626210529106  0.0004340793341255  0.4946702523441682   T   T   T
  0.2872893405547757  0.1440913318597493  0.4909596994409937   T   T   T
  0.2895534330438858  0.2895981667494102  0.4850442820026142   T   T   T
  0.2851737861035277  0.4327891620951116  0.4851647036911478   T   T   T
  0.2885523954369617  0.5694334551546693  0.4911705589723112   T   T   T
  0.2874834834343097  0.7142067975396365  0.4951593815720380   T   T   T
  0.2865133551890255  0.8574285683242067  0.4960820013602781   T   T   T
  0.4293491789674739  0.0003813163763488  0.4948887461862204   T   T   T
  0.4295579759554072  0.1443512849802840  0.4928387014575567   T   T   T
  0.4293951412279826  0.8563591558536586  0.4947350075841475   T   T   T
  0.5714573412671231  0.9999156316966004  0.4947276750152790   T   T   T
  0.5715710596654719  0.1435183225524377  0.4946337287298042   T   T   T
  0.5738388432160167  0.2905351990077151  0.4931614413423908   T   T   T
  0.5735936846753255  0.8554462105926873  0.4930139051187727   T   T   T
  0.7138031675244834  0.9995291430936263  0.4943046528624259   T   T   T
  0.7143053036084543  0.1431172131917760  0.4958358381664068   T   T   T
  0.7138649758130543  0.2863702622090546  0.4957273398787197   T   T   T
  0.7093567607256687  0.4263304050916606  0.4941559759734192   T   T   T
  0.7093222980096524  0.8555448914070725  0.4905636221717280   T   T   T
  0.8565523959505218  0.9993976708330207  0.4942510892804907   T   T   T
  0.8568837328595915  0.1426837655097229  0.4960337896663782   T   T   T
  0.8568619816744929  0.2857723288066402  0.4971303933065224   T   T   T
  0.8564554238852928  0.4287874234636882  0.4968410525453177   T   T   T
  0.8565282455211559  0.5713685668848739  0.4956098950853329   T   T   T
  0.8583082878678293  0.7140837664585938  0.4938729905017411   T   T   T
  0.8553485184667565  0.8555831824159716  0.4932228111700706   T   T   T
  0.0483087146459088  0.0957808888881574  0.4946350937591104   T   T   T
  0.0480177983395900  0.2382551895415956  0.4951702308069790   T   T   T
  0.0471943002590082  0.3811227653773136  0.4967358072101676   T   T   T
  0.0481651929614555  0.5241457238423478  0.4974712819181383   T   T   T
  0.0485156789953271  0.6669197461892661  0.4975096238914452   T   T   T
  0.0481088528452685  0.8098529874462579  0.4966228113718857   T   T   T
  0.0480321368544364  0.9527337862750999  0.4952730641842872   T   T   T
  0.1916342292523913  0.0962933121515786  0.4926997732939525   T   T   T
  0.1928225161120090  0.2400789813349547  0.4910923324670576   T   T   T
  0.1899673106127165  0.3816155260338517  0.4918779611876168   T   T   T
  0.1917717055895216  0.5243357749931556  0.4944237096475417   T   T   T
  0.1918033127169680  0.6669127405869405  0.4963119509596609   T   T   T
  0.1913742826262302  0.8099375595262182  0.4967555674502067   T   T   T
  0.1913329329100251  0.9530379913369055  0.4953037235327605   T   T   T
  0.3343899373604490  0.0962157621667087  0.4928218020334208   T   T   T
  0.3388302743290405  0.2401445685014462  0.4873594153406780   T   T   T
  0.3388921027832015  0.6693830669897706  0.4931953443306761   T   T   T
  0.3343396741091783  0.8093450350387777  0.4954853345478249   T   T   T
  0.3338962001077676  0.9526240958365810  0.4953385719156164   T   T   T
  0.4767266046413454  0.0958492866952267  0.4942128835773131   T   T   T
  0.4745925343365566  0.2403355892283388  0.4914438812041889   T   T   T
  0.4743624625192686  0.8052254128868070  0.4936779899968652   T   T   T
  0.4766146205711971  0.9522319403435321  0.4948606402845701   T   T   T
  0.6188425841865525  0.0953759779577925  0.4951383891517850   T   T   T
  0.6187987292633336  0.2393828113477529  0.4945437821382344   T   T   T
  0.6186306157088858  0.9514175892062516  0.4940582513077906   T   T   T
  0.7617468963238103  0.0953114243056376  0.4956091596807122   T   T   T
  0.7617084532145423  0.2383017205192539  0.4964472665284460   T   T   T
  0.7607562526636391  0.3815048913652883  0.4957307471708142   T   T   T
  0.7597222602562655  0.5262628154933723  0.4931763395896369   T   T   T
  0.7630127085340358  0.6628517007157300  0.4890813959577809   T   T   T
  0.7585082064456971  0.8059945056694089  0.4889577742332983   T   T   T
  0.7608938714098780  0.9516268864727737  0.4931322460695637   T   T   T
  0.9045052335027238  0.0947015589304951  0.4953834265261500   T   T   T
  0.9046370132827103  0.2380895158271484  0.4968463493687100   T   T   T
  0.9042102862126292  0.3813240645858934  0.4974455097134065   T   T   T
  0.9044797290390069  0.5240217751500985  0.4969408006969454   T   T   T
  0.9055343819697059  0.6665315560274903  0.4959211061578424   T   T   T
  0.9044578571558545  0.8092947763662737  0.4943934527658670   T   T   T
  0.9039795696471964  0.9513604560394298  0.4944437963410354   T   T   T
  0.7166081654037912  0.7122098783021785  0.4829707451962867   T   T   T
  0.3312054642929340  0.3832019601683263  0.4768758243644636   T   T   T
  0.6286502439053527  0.6637359184475180  0.4691990889989454   T   T   T
  0.4183115832246291  0.4309589571700706  0.4581974496939380   T   T   T
  0.4287854975613610  0.2845781603494539  0.4882463330639042   T   T   T
  0.4288138090187301  0.7147888362095871  0.4928174069667268   T   T   T
  0.7159788362600162  0.5718610525336389  0.4891580281242510   T   T   T
  0.3322107021308642  0.5238090476030238  0.4854033569577193   T   T   T
  0.6194239743314557  0.3809664915548780  0.4931065007858864   T   T   T
  0.6193814075815439  0.8111697133750949  0.4910330357820630   T   T   T
  0.4893614941000936  0.5674048526486283  0.5633643919351091   T   T   T
  0.5430693905980584  0.5185832551668146  0.5660244444632894   T   T   T
  0.5136522865108686  0.5413850677723009  0.6046639079999991   T   T   F
 
  0.00000000E+00  0.00000000E+00  0.00000000E+00
  0.00000000E+00  0.00000000E+00  0.00000000E+00
  0.00000000E+00  0.00000000E+00  0.00000000E+00
  0.00000000E+00  0.00000000E+00  0.00000000E+00
  0.00000000E+00  0.00000000E+00  0.00000000E+00
  0.00000000E+00  0.00000000E+00  0.00000000E+00
  0.00000000E+00  0.00000000E+00  0.00000000E+00
  0.00000000E+00  0.00000000E+00  0.00000000E+00
  0.00000000E+00  0.00000000E+00  0.00000000E+00
  0.00000000E+00  0.00000000E+00  0.00000000E+00
  0.00000000E+00  0.00000000E+00  0.00000000E+00
  0.00000000E+00  0.00000000E+00  0.00000000E+00
  0.00000000E+00  0.00000000E+00  0.00000000E+00
  0.00000000E+00  0.00000000E+00  0.00000000E+00
  0.00000000E+00  0.00000000E+00  0.00000000E+00
  0.00000000E+00  0.00000000E+00  0.00000000E+00
  0.00000000E+00  0.00000000E+00  0.00000000E+00
  0.00000000E+00  0.00000000E+00  0.00000000E+00
  0.00000000E+00  0.00000000E+00  0.00000000E+00
  0.00000000E+00  0.00000000E+00  0.00000000E+00
  0.00000000E+00  0.00000000E+00  0.00000000E+00
  0.00000000E+00  0.00000000E+00  0.00000000E+00
  0.00000000E+00  0.00000000E+00  0.00000000E+00
  0.00000000E+00  0.00000000E+00  0.00000000E+00
  0.00000000E+00  0.00000000E+00  0.00000000E+00
  0.00000000E+00  0.00000000E+00  0.00000000E+00
  0.00000000E+00  0.00000000E+00  0.00000000E+00
  0.00000000E+00  0.00000000E+00  0.00000000E+00
  0.00000000E+00  0.00000000E+00  0.00000000E+00
  0.00000000E+00  0.00000000E+00  0.00000000E+00
  0.00000000E+00  0.00000000E+00  0.00000000E+00
  0.00000000E+00  0.00000000E+00  0.00000000E+00
  0.00000000E+00  0.00000000E+00  0.00000000E+00
  0.00000000E+00  0.00000000E+00  0.00000000E+00
  0.00000000E+00  0.00000000E+00  0.00000000E+00
  0.00000000E+00  0.00000000E+00  0.00000000E+00
  0.00000000E+00  0.00000000E+00  0.00000000E+00
  0.00000000E+00  0.00000000E+00  0.00000000E+00
  0.00000000E+00  0.00000000E+00  0.00000000E+00
  0.00000000E+00  0.00000000E+00  0.00000000E+00
  0.00000000E+00  0.00000000E+00  0.00000000E+00
  0.00000000E+00  0.00000000E+00  0.00000000E+00
  0.00000000E+00  0.00000000E+00  0.00000000E+00
  0.00000000E+00  0.00000000E+00  0.00000000E+00
  0.00000000E+00  0.00000000E+00  0.00000000E+00
  0.00000000E+00  0.00000000E+00  0.00000000E+00
  0.00000000E+00  0.00000000E+00  0.00000000E+00
  0.00000000E+00  0.00000000E+00  0.00000000E+00
  0.00000000E+00  0.00000000E+00  0.00000000E+00
  0.00000000E+00  0.00000000E+00  0.00000000E+00
  0.00000000E+00  0.00000000E+00  0.00000000E+00
  0.00000000E+00  0.00000000E+00  0.00000000E+00
  0.00000000E+00  0.00000000E+00  0.00000000E+00
  0.00000000E+00  0.00000000E+00  0.00000000E+00
  0.00000000E+00  0.00000000E+00  0.00000000E+00
  0.00000000E+00  0.00000000E+00  0.00000000E+00
  0.00000000E+00  0.00000000E+00  0.00000000E+00
  0.00000000E+00  0.00000000E+00  0.00000000E+00
  0.00000000E+00  0.00000000E+00  0.00000000E+00
  0.00000000E+00  0.00000000E+00  0.00000000E+00
  0.00000000E+00  0.00000000E+00  0.00000000E+00
  0.00000000E+00  0.00000000E+00  0.00000000E+00
  0.00000000E+00  0.00000000E+00  0.00000000E+00
  0.00000000E+00  0.00000000E+00  0.00000000E+00
  0.00000000E+00  0.00000000E+00  0.00000000E+00
  0.00000000E+00  0.00000000E+00  0.00000000E+00
  0.00000000E+00  0.00000000E+00  0.00000000E+00
  0.00000000E+00  0.00000000E+00  0.00000000E+00
  0.00000000E+00  0.00000000E+00  0.00000000E+00
  0.00000000E+00  0.00000000E+00  0.00000000E+00
  0.00000000E+00  0.00000000E+00  0.00000000E+00
  0.00000000E+00  0.00000000E+00  0.00000000E+00
  0.00000000E+00  0.00000000E+00  0.00000000E+00
  0.00000000E+00  0.00000000E+00  0.00000000E+00
  0.00000000E+00  0.00000000E+00  0.00000000E+00
  0.00000000E+00  0.00000000E+00  0.00000000E+00
  0.00000000E+00  0.00000000E+00  0.00000000E+00
  0.00000000E+00  0.00000000E+00  0.00000000E+00
  0.00000000E+00  0.00000000E+00  0.00000000E+00
  0.00000000E+00  0.00000000E+00  0.00000000E+00
  0.00000000E+00  0.00000000E+00  0.00000000E+00
  0.00000000E+00  0.00000000E+00  0.00000000E+00
  0.00000000E+00  0.00000000E+00  0.00000000E+00
  0.00000000E+00  0.00000000E+00  0.00000000E+00
  0.00000000E+00  0.00000000E+00  0.00000000E+00
  0.00000000E+00  0.00000000E+00  0.00000000E+00
  0.00000000E+00  0.00000000E+00  0.00000000E+00
  0.00000000E+00  0.00000000E+00  0.00000000E+00
  0.00000000E+00  0.00000000E+00  0.00000000E+00
  0.00000000E+00  0.00000000E+00  0.00000000E+00
  0.00000000E+00  0.00000000E+00  0.00000000E+00
  0.00000000E+00  0.00000000E+00  0.00000000E+00
  0.00000000E+00  0.00000000E+00  0.00000000E+00
