C    F    N    H    O 
    1.000000000000000     
  17.2710380553999983   0.0000000000000000   0.0000000000000000
  -8.6355190276999991  14.9571577057000002   0.0000000000000000
   0.0000000000000000   0.0000000000000000  15.0000000000000000
C    F    N    H    O 
82  2  6  2  1  
Selective dynamics
Direct
  0.9998885266225360  0.9999101048725270  0.4947217652671559 T T T
  0.0001295803269953  0.1429215463831406  0.4952016914749712 T T T
  0.0000891882466679  0.2858264180860934  0.4966908885880766 T T T
  0.9998075986943080  0.4288217408500404  0.4975912574998411 T T T
  0.0001604308178976  0.5716138842637164  0.4975124318667972 T T T
  0.0010610891799003  0.7146129890141077  0.4971126051839270 T T T
  0.0002113086533317  0.8574704419626622  0.4957415060172911 T T T
  0.1437260577544889  0.0010029616977808  0.4945229924233871 T T T
  0.1441768954243172  0.1443246923563751  0.4930720173015411 T T T
  0.1436782367384513  0.2863659241851835  0.4929496041126404 T T T
  0.1427249851085133  0.4291618881872093  0.4951193407176659 T T T
  0.1438178020932701  0.5716881165969323  0.4964096094717459 T T T
  0.1440696492832718  0.7144372928451233  0.4972353522707673 T T T
  0.1436060851756203  0.8576724769209091  0.4966395737735362 T T T
  0.2864993314912160  0.0005077880550836  0.4949994526346829 T T T
  0.2872593271506750  0.1441157544261289  0.4910442533697033 T T T
  0.2894811222205761  0.2895670665258365  0.4848470952177437 T T T
  0.2851122930976154  0.4327511816910815  0.4851540930427122 T T T
  0.2885155640884441  0.5694271153074748  0.4912214540123878 T T T
  0.2874507190692474  0.7142572406987024  0.4953134123272740 T T T
  0.2865316886559596  0.8574852029040144  0.4963808061883953 T T T
  0.4293534600351406  0.0004052407434728  0.4947791534852607 T T T
  0.4296031335562853  0.1443521731947734  0.4927774991433984 T T T
  0.4294216195532000  0.8564123090730162  0.4947738473631230 T T T
  0.5715307493487991  0.9999213960975590  0.4946879645153677 T T T
  0.5716652910123279  0.1435918729093833  0.4945874744534802 T T T
  0.5738778622137281  0.2905667703013362  0.4932977608164711 T T T
  0.5735892550786272  0.8554059858585101  0.4932232885709373 T T T
  0.7138410532168716  0.9995199412854276  0.4944918295249831 T T T
  0.7143225593425313  0.1430824047217212  0.4958660094057352 T T T
  0.7139364860489451  0.2863590907155151  0.4960022279935030 T T T
  0.7094399197898181  0.4263279926672752  0.4943965170953189 T T T
  0.7093113613998708  0.8554980478963372  0.4908717730064024 T T T
  0.8565107804577905  0.9993363611027692  0.4943165930700676 T T T
  0.8569074024221508  0.1426314187188688  0.4959336893499861 T T T
  0.8569049865923157  0.2858013893210893  0.4971122632716832 T T T
  0.8564934509802171  0.4287996055631678  0.4969200027681864 T T T
  0.8565762531930539  0.5713848709103263  0.4956813816274210 T T T
  0.8582415044177881  0.7140802347608127  0.4939243294500824 T T T
  0.8553047837944122  0.8555566912162804  0.4933999227294625 T T T
  0.0482708538113546  0.0957683017948703  0.4945650535586152 T T T
  0.0479443531751756  0.2382178679715223  0.4953450735219539 T T T
  0.0471739645512573  0.3811255895533646  0.4970313642648372 T T T
  0.0481818621769140  0.5241937882395408  0.4974464562142373 T T T
  0.0484987786347708  0.6669855816188668  0.4975316559057664 T T T
  0.0481210421855135  0.8099169256791420  0.4966789382261833 T T T
  0.0480629717906429  0.9527579262012784  0.4951393977255861 T T T
  0.1916475325518078  0.0963436953181153  0.4926820515483213 T T T
  0.1927600563050002  0.2400645798839827  0.4909863934560600 T T T
  0.1898927548901302  0.3815718544408238  0.4920960583070768 T T T
  0.1917313178569687  0.5243447061413822  0.4945835608482104 T T T
  0.1918342476665237  0.6669859025971572  0.4963290533613121 T T T
  0.1913876823602302  0.8099870023332288  0.4969897182930735 T T T
  0.1913563502123250  0.9530745293560176  0.4954815303120480 T T T
  0.3344139850554000  0.0962450724113373  0.4929897186208912 T T T
  0.3387961813544196  0.2401578683179761  0.4872702618341601 T T T
  0.3388500732770087  0.6693987478931195  0.4932385878180002 T T T
  0.3343429167507728  0.8094252950546916  0.4956688837148985 T T T
  0.3339373645782897  0.9527106790951740  0.4956002359001046 T T T
  0.4767670997625544  0.0959022900692161  0.4940317767306878 T T T
  0.4746265046523997  0.2404147961806919  0.4913814490512660 T T T
  0.4743940902848490  0.8052375492777659  0.4937670922323883 T T T
  0.4766241387353719  0.9522133662710238  0.4947778657980451 T T T
  0.6189240729843509  0.0954189461747344  0.4951117518712209 T T T
  0.6188622846607855  0.2393925449968126  0.4947544347947349 T T T
  0.6186861226080219  0.9514778444708299  0.4941543843519491 T T T
  0.7617666996695102  0.0952634017186263  0.4955792629153926 T T T
  0.7617571654956281  0.2383176233361067  0.4964836199222360 T T T
  0.7608319754286178  0.3814969763572769  0.4959719348438201 T T T
  0.7597517614722014  0.5262352356556016  0.4933041479752671 T T T
  0.7629178787306936  0.6628027090589846  0.4891603000463900 T T T
  0.7584509723009301  0.8059551245259188  0.4891192132185440 T T T
  0.7608944844858205  0.9515744440581836  0.4933143805426015 T T T
  0.9044825105384002  0.0946632567547198  0.4952716799577701 T T T
  0.9046241760731328  0.2380547608106537  0.4968244186899297 T T T
  0.9042415464734518  0.3813350182825789  0.4975346580589657 T T T
  0.9045192547462240  0.5240931029477318  0.4970155094699800 T T T
  0.9055145779912592  0.6665672325135001  0.4959471624818348 T T T
  0.9044190977537594  0.8092884479405823  0.4945179614148578 T T T
  0.9039603144735020  0.9513475112553856  0.4944729771480225 T T T
  0.7165151927695399  0.7121394963249694  0.4830104854966745 T T T
  0.3311579365685859  0.3832070559599397  0.4768093477530870 T T T
  0.6285932978637795  0.6637104636975826  0.4690005517746245 T T T
  0.4183005697787276  0.4308863593548566  0.4583486622476657 T T T
  0.4287942221980377  0.2845988035285731  0.4881612027217083 T T T
  0.4287809535979237  0.7148010370684642  0.4928053950350159 T T T
  0.7159777142650767  0.5717896588710539  0.4892333809878190 T T T
  0.3321396902904893  0.5237873895745834  0.4853257571959819 T T T
  0.6195253021324467  0.3809735840711741  0.4932506538757327 T T T
  0.6193471682020918  0.8111428699039923  0.4913290986865254 T T T
  0.4894826299339881  0.5673155876733231  0.5632854491143748 T T T
  0.5429607417447495  0.5182739305674920  0.5660115033333794 T T T
  0.5136410298014387  0.5411983269576930  0.6046639079999991 T T F
