C    H    N    O 
    1.000000000000000     
  17.2710380553999983   0.0000000000000000   0.0000000000000000
  -8.6355190276999991  14.9571577057000002   0.0000000000000000
   0.0000000000000000   0.0000000000000000  15.0000000000000000
C    H    N    O 
86  8  2  1  
Selective dynamics
Direct
  0.9988747155744374  0.9991576733268543  0.4996086475210654 T T T
  0.9989836863229070  0.1420706152930265  0.5000089861864317 T T T
  0.9990942712158788  0.2852265517357956  0.5002947686780960 T T T
  0.9989358250216882  0.4282143845073357  0.5004265977278044 T T T
  0.9988953468114502  0.5710407750902525  0.4999339205047883 T T T
  0.9990382329314410  0.7136855606572162  0.4995607644131441 T T T
  0.9990638233163650  0.8567417371002720  0.4994947727011343 T T T
  0.1425434348111896  0.9999667460334960  0.4990297845132574 T T T
  0.1422498721064341  0.1425237373423348  0.5005500616054188 T T T
  0.1414608481954498  0.2847502496921170  0.5020282103554478 T T T
  0.1414130220030342  0.4280071459644817  0.5024097204612832 T T T
  0.1422286852577639  0.5709916911256395  0.5012393389267426 T T T
  0.1425406748613994  0.7139066442720943  0.4994472416195800 T T T
  0.1424511145238035  0.8568963293633285  0.4985931267372948 T T T
  0.2856783027998716  0.9999662371619320  0.4987687322529731 T T T
  0.2860009175530083  0.1430711989737813  0.5004854900020368 T T T
  0.2856928289922947  0.2869128536835935  0.5032550005192271 T T T
  0.2831489031595803  0.4272349227521893  0.5047294344722398 T T T
  0.2856587681454892  0.5700457975957597  0.5040013071272674 T T T
  0.2859687109616793  0.7141904415308791  0.5012790478988514 T T T
  0.2856771496153732  0.8570250445553365  0.4991311061014754 T T T
  0.4285613864133920  0.9999141347332120  0.4989621504123841 T T T
  0.4292463115451635  0.1434612550322635  0.4997522359311820 T T T
  0.4281707713627894  0.2837235890702205  0.5026418408698797 T T T
  0.4281362377898968  0.7157486356096954  0.5032710110601506 T T T
  0.4292311332961812  0.8570576594638948  0.5002318188879278 T T T
  0.5711407584215002  0.9999084684848560  0.4995384834221910 T T T
  0.5711696708190922  0.1425740036289769  0.4992909858897340 T T T
  0.5745675137319375  0.2884452492385801  0.5008448618839455 T T T
  0.5745920757609841  0.8574930263605570  0.5012558319792122 T T T
  0.7140207941556013  0.0003260533161134  0.4999859406936866 T T T
  0.7139275437890078  0.1426390559727905  0.4989892763680491 T T T
  0.7140276414162761  0.2850734667386506  0.4998478040260448 T T T
  0.7095605730045242  0.4242262285525080  0.5020359393771179 T T T
  0.7140032045137344  0.5710967282321856  0.5068184684295030 T T T
  0.7140152424136307  0.7143488231948633  0.5069697605924096 T T T
  0.7096051986664645  0.8567664603687261  0.5022188301276989 T T T
  0.8560438894232372  0.9993257948415866  0.5002513710149243 T T T
  0.8564902333211999  0.1425590631563662  0.4993142403444477 T T T
  0.8565091213783497  0.2853331146756080  0.4994274755224626 T T T
  0.8560297047158280  0.4280693838739747  0.5003824291926657 T T T
  0.8549759281730864  0.5701888790429775  0.5013157637644398 T T T
  0.8560432198836839  0.7137209004434186  0.5021204674297904 T T T
  0.8549681669360047  0.8561480647489706  0.5013011821485982 T T T
  0.0468269378011090  0.0945733407898365  0.4999589741585173 T T T
  0.0462081407468962  0.2371147020155769  0.5006703943039501 T T T
  0.0461673804510089  0.3804183554259190  0.5009554857612836 T T T
  0.0468039941513943  0.5235449628867462  0.5004403189725980 T T T
  0.0468886639658505  0.6663715608644244  0.4994755757161770 T T T
  0.0467221596258198  0.8090378232186968  0.4990839770340570 T T T
  0.0469037816678715  0.9518858645369358  0.4991983331606342 T T T
  0.1903326799815247  0.0950291564362068  0.4999417780940560 T T T
  0.1896713712878604  0.2377079313690147  0.5020213914265570 T T T
  0.1878765845984905  0.3796016285949548  0.5032350405493401 T T T
  0.1896407507694728  0.5232281442104056  0.5027395217255244 T T T
  0.1902910589822319  0.6665737632748465  0.5005756285107058 T T T
  0.1903228447157493  0.8094082729776054  0.4989199465155060 T T T
  0.1903343938769881  0.9522669528331444  0.4986199318736793 T T T
  0.3338033805917616  0.0957142856182995  0.4995493478430129 T T T
  0.3347328111562564  0.2385967822702540  0.5022312108022424 T T T
  0.3295607673931277  0.3796321091538139  0.5046873250015762 T T T
  0.3295848474303701  0.5212314991177371  0.5051137652631356 T T T
  0.3346890989034979  0.6673918353603344  0.5031016309483105 T T T
  0.3337699488057891  0.8093461601159018  0.5001380957968048 T T T
  0.3331013770247297  0.9522051468064302  0.4987846986720763 T T T
  0.4761657657437720  0.0950960071329183  0.4991719697227958 T T T
  0.4769046174499171  0.2391596010433306  0.5009736679605102 T T T
  0.4768946251751600  0.8090368690628148  0.5015270135018601 T T T
  0.4761563421500456  0.9523521301081284  0.4994226032675477 T T T
  0.6185915151723410  0.0949471323536884  0.4991277584430276 T T T
  0.6193005745808869  0.2379904553848443  0.4999633397884187 T T T
  0.6193167571214783  0.9526874699629908  0.5002604614589955 T T T
  0.7616208406685171  0.0954550696744867  0.4991639037466494 T T T
  0.7616267196287152  0.2375417586223660  0.4991792908416278 T T T
  0.7606513716897723  0.3798574918456375  0.5007539817625146 T T T
  0.7584362367546724  0.5225444359670214  0.5033521097368145 T T T
  0.7601250205822123  0.6657897095575780  0.5056188051739025 T T T
  0.7584641246747306  0.8073200483790500  0.5034620117066122 T T T
  0.7606737823397475  0.9522069075717636  0.5008361198113993 T T T
  0.9036814590110652  0.0943325146244827  0.4997060175318483 T T T
  0.9040187448694288  0.2377001967535898  0.4994641306976959 T T T
  0.9036721517368546  0.3807099046322404  0.4999362676187185 T T T
  0.9034190402690240  0.5234179737449777  0.5003640622970460 T T T
  0.9031522466007992  0.6656566640070570  0.5009005917773858 T T T
  0.9031623162331480  0.8088638014607873  0.5008798127534646 T T T
  0.9034128756230309  0.9513379833251100  0.5002314937245566 T T T
  0.4668427170784821  0.3563677013258604  0.5043040314189939 T T T
  0.4021903581809418  0.4190198177962045  0.5044953237164463 T T T
  0.4022298379523926  0.5544738983382098  0.5048186656463365 T T T
  0.6412185429441879  0.6780015541575470  0.5108036424968089 T T T
  0.6412002504739927  0.5347356836308410  0.5104903489842605 T T T
  0.4667930913798975  0.6817632237728127  0.5047648041981049 T T T
  0.5571442637036746  0.6093501923090990  0.3790133247076225 T T T
  0.5572825098888482  0.5202687715037670  0.3787940856426897 T T T
  0.6195000072834609  0.3789367663952787  0.5016232300999298 T T T
  0.6195440314422999  0.8119541023069548  0.5019861199173405 T T T
  0.5210024055565888  0.5466267958327770  0.3953361829999977 T T F
