C4                                      
    1.000000000000000     
    17.2710380553999983    0.0000000000000000    0.0000000000000000
    -8.6355190276999991   14.9571577057000002    0.0000000000000000
     0.0000000000000000    0.0000000000000000   15.0000000000000000
   C    H    N 
    86     6     2
Direct
  0.0009264642308905  0.0006252720355467  0.2500000744686598
 -0.0002339718627092  0.1428350022223762  0.2500000433397231
 -0.0013895737441206  0.2849937696929102  0.2499984735452750
 -0.0014357774706185  0.4281352499674342  0.2500002557074022
 -0.0007384005494079  0.5714021175422141  0.2499999068143494
  0.0010271420276687  0.7149920844992853  0.2500001053571165
  0.0022718490557843  0.8584923358050411  0.2500000820606197
  0.1441445740520616  0.0010443676376434  0.2500001035524113
  0.1435045509644541  0.1440325466327661  0.2500000341544841
  0.1419623919339589  0.2858693649930185  0.2500004859986830
  0.1402440329855613  0.4276458052877089  0.2500007953204067
  0.1418496365783964  0.5707485652554998  0.2499990824480403
  0.1430897965171794  0.7140517751751855  0.2499997859814053
  0.1440711282520167  0.8575512814287086  0.2500001319597870
  0.2863064825924107 -0.0001066802600080  0.2500001078995640
  0.2862022537286990  0.1435956951712886  0.2500001201650935
  0.2865419509387359  0.2895237659868409  0.2500000387548189
  0.2833982138925683  0.4310744487173777  0.2500002386326439
  0.2843010856870071  0.5666866623776390  0.2499984102036834
  0.2852363649248618  0.7127124342446495  0.2500007733541532
  0.2861083377246358  0.8565471297227575  0.2499999658156188
  0.4289522623110703 -0.0008248962465283  0.2500000778836599
  0.4287257992227932  0.1424147393319389  0.2500001127516226
  0.4270691570338879  0.2826925370116260  0.2500001362356440
  0.4261266071503345  0.7127210895149293  0.2500010144062959
  0.4286046716726851  0.8554242442785283  0.2500000870987219
  0.5713651577298914 -0.0013345651198917  0.2500000797944893
  0.5713757640435994  0.1419576463995008  0.2500000990821691
  0.5721340286401879  0.2858801722306227  0.2500001454164923
  0.5723334712675532  0.8551140915416462  0.2499999731940009
  0.7142177073140413 -0.0015675084667731  0.2500000694896841
  0.7140103695416327  0.1420450991054519  0.2500000674425982
  0.7138735349176824  0.2857126834457498  0.2500001267059629
  0.7132673080962294  0.4288927884767210  0.2500001581460259
  0.7173857358052661  0.5767006423966234  0.2500001161547885
  0.7144041786913105  0.8553521347993623  0.2500000745039048
  0.8574253949269304 -0.0003282315602692  0.2500000526469219
  0.8564994218924438  0.1421117623032280  0.2500000354743565
  0.8561317709905201  0.2851406432731513  0.2500000605713412
  0.8563351753329939  0.4286238287870849  0.2500000744737110
  0.8569465534289231  0.5725951501007635  0.2500001366168977
  0.8596109455545006  0.7165246993544392  0.2500000555736471
  0.8590098828356165  0.8574819042031347  0.2500000442062882
  0.0482579787563702  0.0959728732828938  0.2500000238139564
  0.0465687533645746  0.2377484820519411  0.2500000886168278
  0.0452912931602504  0.3800080040758953  0.2499993798163585
  0.0466580934918161  0.5234860987956531  0.2500002860867634
  0.0477843493464591  0.6668099942643777  0.2499999112770314
  0.0490486548796092  0.8102080597914254  0.2500001175796543
  0.0490446061483548  0.9533736555828187  0.2500000986469089
  0.1911201377885697  0.0960046489990905  0.2500000352216170
  0.1905735575796924  0.2394101796314885  0.2500003611782177
  0.1879114121911775  0.3807666861734978  0.2499998895856112
  0.1885116920200852  0.5223569380628277  0.2500001315580252
  0.1900193644740425  0.6661207644013071  0.2500005133519588
  0.1911436166708842  0.8094702280785993  0.2499999680478788
  0.1914193820805043  0.9527494139560297  0.2500001384916957
  0.3336945261990310  0.0955384016964150  0.2500001427698554
  0.3342862747947464  0.2392897202922873  0.2500000425485326
  0.3302034039973855  0.3831219238234679  0.2500001720293805
  0.3331110146683062  0.6648947452638140  0.2499926663796002
  0.3333934303790515  0.8081211214839050  0.2500004042105818
  0.3335877417029571  0.9517719796911850  0.2500000168492911
  0.4763120067715844  0.0943847570666431  0.2500000904175653
  0.4755296708444721  0.2376166569549514  0.2500001359535000
  0.4753125723015820  0.8065482529819504  0.2500004040188781
  0.4762408888728540  0.9511034815108884  0.2500000513674650
  0.6186372703777635  0.0940226028375592  0.2500000981673531
  0.6189097226198624  0.2374963818297969  0.2500001434242973
  0.6205208034474243  0.3793656822374704  0.2500001747951525
  0.6214393080442824  0.8103580984093718  0.2500000562615767
  0.6190511630713376  0.9506555275582629  0.2500000220141219
  0.7615085175798930  0.0942268802065409  0.2500000406290123
  0.7612224884003895  0.2374564733715663  0.2500000371322751
  0.7612831351785525  0.3812638797796050  0.2500000791104132
  0.7610163338980155  0.5268346889665817  0.2500001584483030
  0.7641246714333270  0.6713493114406746  0.2500000745492791
  0.7631788930649711  0.8059496895564968  0.2500000616161063
  0.7622114707300048  0.9510004314632926  0.2500000723937011
  0.9044561792981750  0.0946174912313034  0.2499999520640581
  0.9035587321616658  0.2373192178929330  0.2499998945659400
  0.9034500732158898  0.3807230079768896  0.2500002941101042
  0.9039983860917257  0.5242676083675892  0.2500000448027098
  0.9056301280757862  0.6676913577864370  0.2500001144534085
  0.9072643802941318  0.8110815385898283  0.2500000425951146
  0.9056774149449526  0.9525347675085204  0.2500000746797535
  0.4633336365131278  0.3552155526059819  0.2500001413049469
  0.4028401491304000  0.4235909571952462  0.2499999694574022
  0.6447427371668983  0.5444854420594464  0.2500001308173393
  0.5841666512154297  0.4155409207329074  0.2500001540213173
  0.5879009789760445  0.7377039791786035  0.2500001327038838
  0.4594735248811347  0.6734269694057782  0.2500002911054539
  0.7178906634899845  0.7164666313641980  0.2500000924501981
  0.3295813050268190  0.5224414792015514  0.2500007691064605
 
  0.00000000E+00  0.00000000E+00  0.00000000E+00
  0.00000000E+00  0.00000000E+00  0.00000000E+00
  0.00000000E+00  0.00000000E+00  0.00000000E+00
  0.00000000E+00  0.00000000E+00  0.00000000E+00
  0.00000000E+00  0.00000000E+00  0.00000000E+00
  0.00000000E+00  0.00000000E+00  0.00000000E+00
  0.00000000E+00  0.00000000E+00  0.00000000E+00
  0.00000000E+00  0.00000000E+00  0.00000000E+00
  0.00000000E+00  0.00000000E+00  0.00000000E+00
  0.00000000E+00  0.00000000E+00  0.00000000E+00
  0.00000000E+00  0.00000000E+00  0.00000000E+00
  0.00000000E+00  0.00000000E+00  0.00000000E+00
  0.00000000E+00  0.00000000E+00  0.00000000E+00
  0.00000000E+00  0.00000000E+00  0.00000000E+00
  0.00000000E+00  0.00000000E+00  0.00000000E+00
  0.00000000E+00  0.00000000E+00  0.00000000E+00
  0.00000000E+00  0.00000000E+00  0.00000000E+00
  0.00000000E+00  0.00000000E+00  0.00000000E+00
  0.00000000E+00  0.00000000E+00  0.00000000E+00
  0.00000000E+00  0.00000000E+00  0.00000000E+00
  0.00000000E+00  0.00000000E+00  0.00000000E+00
  0.00000000E+00  0.00000000E+00  0.00000000E+00
  0.00000000E+00  0.00000000E+00  0.00000000E+00
  0.00000000E+00  0.00000000E+00  0.00000000E+00
  0.00000000E+00  0.00000000E+00  0.00000000E+00
  0.00000000E+00  0.00000000E+00  0.00000000E+00
  0.00000000E+00  0.00000000E+00  0.00000000E+00
  0.00000000E+00  0.00000000E+00  0.00000000E+00
  0.00000000E+00  0.00000000E+00  0.00000000E+00
  0.00000000E+00  0.00000000E+00  0.00000000E+00
  0.00000000E+00  0.00000000E+00  0.00000000E+00
  0.00000000E+00  0.00000000E+00  0.00000000E+00
  0.00000000E+00  0.00000000E+00  0.00000000E+00
  0.00000000E+00  0.00000000E+00  0.00000000E+00
  0.00000000E+00  0.00000000E+00  0.00000000E+00
  0.00000000E+00  0.00000000E+00  0.00000000E+00
  0.00000000E+00  0.00000000E+00  0.00000000E+00
  0.00000000E+00  0.00000000E+00  0.00000000E+00
  0.00000000E+00  0.00000000E+00  0.00000000E+00
  0.00000000E+00  0.00000000E+00  0.00000000E+00
  0.00000000E+00  0.00000000E+00  0.00000000E+00
  0.00000000E+00  0.00000000E+00  0.00000000E+00
  0.00000000E+00  0.00000000E+00  0.00000000E+00
  0.00000000E+00  0.00000000E+00  0.00000000E+00
  0.00000000E+00  0.00000000E+00  0.00000000E+00
  0.00000000E+00  0.00000000E+00  0.00000000E+00
  0.00000000E+00  0.00000000E+00  0.00000000E+00
  0.00000000E+00  0.00000000E+00  0.00000000E+00
  0.00000000E+00  0.00000000E+00  0.00000000E+00
  0.00000000E+00  0.00000000E+00  0.00000000E+00
  0.00000000E+00  0.00000000E+00  0.00000000E+00
  0.00000000E+00  0.00000000E+00  0.00000000E+00
  0.00000000E+00  0.00000000E+00  0.00000000E+00
  0.00000000E+00  0.00000000E+00  0.00000000E+00
  0.00000000E+00  0.00000000E+00  0.00000000E+00
  0.00000000E+00  0.00000000E+00  0.00000000E+00
  0.00000000E+00  0.00000000E+00  0.00000000E+00
  0.00000000E+00  0.00000000E+00  0.00000000E+00
  0.00000000E+00  0.00000000E+00  0.00000000E+00
  0.00000000E+00  0.00000000E+00  0.00000000E+00
  0.00000000E+00  0.00000000E+00  0.00000000E+00
  0.00000000E+00  0.00000000E+00  0.00000000E+00
  0.00000000E+00  0.00000000E+00  0.00000000E+00
  0.00000000E+00  0.00000000E+00  0.00000000E+00
  0.00000000E+00  0.00000000E+00  0.00000000E+00
  0.00000000E+00  0.00000000E+00  0.00000000E+00
  0.00000000E+00  0.00000000E+00  0.00000000E+00
  0.00000000E+00  0.00000000E+00  0.00000000E+00
  0.00000000E+00  0.00000000E+00  0.00000000E+00
  0.00000000E+00  0.00000000E+00  0.00000000E+00
  0.00000000E+00  0.00000000E+00  0.00000000E+00
  0.00000000E+00  0.00000000E+00  0.00000000E+00
  0.00000000E+00  0.00000000E+00  0.00000000E+00
  0.00000000E+00  0.00000000E+00  0.00000000E+00
  0.00000000E+00  0.00000000E+00  0.00000000E+00
  0.00000000E+00  0.00000000E+00  0.00000000E+00
  0.00000000E+00  0.00000000E+00  0.00000000E+00
  0.00000000E+00  0.00000000E+00  0.00000000E+00
  0.00000000E+00  0.00000000E+00  0.00000000E+00
  0.00000000E+00  0.00000000E+00  0.00000000E+00
  0.00000000E+00  0.00000000E+00  0.00000000E+00
  0.00000000E+00  0.00000000E+00  0.00000000E+00
  0.00000000E+00  0.00000000E+00  0.00000000E+00
  0.00000000E+00  0.00000000E+00  0.00000000E+00
  0.00000000E+00  0.00000000E+00  0.00000000E+00
  0.00000000E+00  0.00000000E+00  0.00000000E+00
  0.00000000E+00  0.00000000E+00  0.00000000E+00
  0.00000000E+00  0.00000000E+00  0.00000000E+00
  0.00000000E+00  0.00000000E+00  0.00000000E+00
  0.00000000E+00  0.00000000E+00  0.00000000E+00
  0.00000000E+00  0.00000000E+00  0.00000000E+00
  0.00000000E+00  0.00000000E+00  0.00000000E+00
  0.00000000E+00  0.00000000E+00  0.00000000E+00
  0.00000000E+00  0.00000000E+00  0.00000000E+00
