C4                                      
    1.000000000000000     
    17.2710380553999983    0.0000000000000000    0.0000000000000000
    -8.6355190276999991   14.9571577057000002    0.0000000000000000
     0.0000000000000000    0.0000000000000000   15.0000000000000000
   C    F    N 
    82     2     6
Direct
 -0.0012184792061197 -0.0009225520730330  0.2499965931228500
 -0.0009503443548609  0.1421536838189884  0.2499988466295018
 -0.0001544216674811  0.2857343492607799  0.2500023708623784
  0.0003041388655014  0.4288244926718595  0.2500017118791234
  0.0006222844493542  0.5716137685793697  0.2500081246563554
  0.0011557638247126  0.7145989956625828  0.2500034384398742
 -0.0002504657356178  0.8571270472493157  0.2499991263137025
  0.1431033199456976  0.0006859963327722  0.2499982565854352
  0.1427168358602443  0.1430391149433540  0.2499995606554705
  0.1420901000218619  0.2847148443893263  0.2500015155563102
  0.1437939700427674  0.4288385071253976  0.2500009053771638
  0.1446733857894019  0.5715303040786412  0.2499999135864484
  0.1441486300342082  0.7145404800150904  0.2500021175516536
  0.1433409101272127  0.8576818107189119  0.2499989551742251
  0.2860698780432407  0.0009209957768897  0.2499996952286742
  0.2866215103504621  0.1445510794254246  0.2499963745448726
  0.2875980814590275  0.2900610582090171  0.2499947337115817
  0.2849343164691814  0.4235471743690019  0.2499980522665633
  0.2901685209679828  0.5716794926808638  0.2499984977809168
  0.2875233214379743  0.7151543586042719  0.2500000306683614
  0.2862913319479102  0.8580377795901779  0.2500001976522644
  0.4290251787514518  0.0013021242689865  0.2500005559189777
  0.4290945666867026  0.1453130931691266  0.2499992471657009
  0.4292767756981478  0.8575588088627527  0.2499993094578994
  0.5712430575801474  0.0006628563255268  0.2499958178939287
  0.5712660220447592  0.1442974867676232  0.2499982908025720
  0.5736093668809844  0.2914339315237110  0.2499982967769096
  0.5731664088575136  0.8561711185244587  0.2499958822286517
  0.7133511097322736 -0.0002430424832253  0.2499944661345051
  0.7139887701873676  0.1435200669766690  0.2499966056190313
  0.7136939902908574  0.2868396596732969  0.2499994099733287
  0.7096205693605889  0.4267525516781949  0.2499997644280075
  0.7083651732216544  0.8552742231566891  0.2499990058098841
  0.8555654939806892 -0.0010771549481795  0.2499945343487549
  0.8564954752006876  0.1427504186394807  0.2500000770822532
  0.8567162076075956  0.2860284337828025  0.2499992055981616
  0.8567493454861319  0.4289907600462915  0.2500036904689651
  0.8568644962527912  0.5715394198193057  0.2500053399227004
  0.8581029452921705  0.7140288262073748  0.2500002937580346
  0.8544032108184390  0.8550652168314518  0.2499949297347491
  0.0470073331240101  0.0947601926017443  0.2499983571896445
  0.0465834578710860  0.2372339956471098  0.2500017549986701
  0.0480050090921867  0.3812864063480051  0.2500021711732302
  0.0488246441571318  0.5241469543944888  0.2500023288390849
  0.0486986683531557  0.6669864553849895  0.2500064724454690
  0.0479338579357868  0.8098097193780328  0.2499995302688819
  0.0473804867965312  0.9522815048761442  0.2500001412349165
  0.1908228254220803  0.0959219871304324  0.2499985776347294
  0.1907730143255188  0.2383453402797051  0.2499985219261146
  0.1895697995722510  0.3795249356256230  0.2500014112472109
  0.1932061755005657  0.5243378212458476  0.2499984407079169
  0.1920295943737214  0.6671178890601674  0.2500006699625374
  0.1912094637574500  0.8100892913676211  0.2499996368638786
  0.1909279159070468  0.9530449317701035  0.2499988877577125
  0.3338962381273156  0.0967542230703548  0.2499994328021132
  0.3379728987095741  0.2407370661249008  0.2499943682720659
  0.3392067663180984  0.6705953726159994  0.2500004493143237
  0.3341906736483878  0.8102557898444106  0.2500003167684550
  0.3336318452046506  0.9533330776135142  0.2500001696676168
  0.4763459161493849  0.0968208797031311  0.2499995943597962
  0.4740413056257778  0.2416368546271822  0.2499976520414225
  0.4743422419271250  0.8067462757732852  0.2499984980405589
  0.4763992737738421  0.9532269040702712  0.2499996921875513
  0.6185609828197560  0.0960752037953101  0.2499962248474453
  0.6184944588555906  0.2400676360021898  0.2499990582213690
  0.6182675189903258  0.9520515792733900  0.2499940047933161
  0.7613210626423020  0.0955163786513058  0.2499962435154885
  0.7615210011393548  0.2387455460149216  0.2499985492615872
  0.7609582021252191  0.3819227390385918  0.2500010549306211
  0.7600198581195314  0.5265212892742940  0.2500008692680871
  0.7627524904563781  0.6626993190039917  0.2500058473444652
  0.7573403145461277  0.8053860471283986  0.2500036121264751
  0.7600862636002378  0.9513913956566495  0.2499952394165109
  0.9035764059020549  0.0942295773666773  0.2499973236596731
  0.9043642498549411  0.2382248751558169  0.2500002112421166
  0.9045633222873670  0.3815455913823441  0.2499995718819564
  0.9049195366306754  0.5242388406395622  0.2500078397181683
  0.9055824014208066  0.6666231282957482  0.2500033776528651
  0.9039573031338325  0.8091135009043259  0.2499970331069353
  0.9029096024518619  0.9507309140503256  0.2499934169910127
  0.7153360471469919  0.7113385838678946  0.2500168641098957
  0.3321263420676963  0.5195994522357842  0.2499972693680595
  0.6263543729182650  0.6614740477134318  0.2500352373874172
  0.4210592518776630  0.5589929041140852  0.2500018626925113
  0.4279238046546257  0.2857704598061021  0.2499965483346952
  0.4290857865710562  0.7165932971062066  0.2499987214433605
  0.7160769614217596  0.5718635922467865  0.2500024672185260
  0.3316062475189768  0.3793913292112080  0.2499943821006999
  0.6196742994190042  0.3817166913789730  0.2499981155754011
  0.6184773247580826  0.8113389178432198  0.2499982367206961
 
  0.00000000E+00  0.00000000E+00  0.00000000E+00
  0.00000000E+00  0.00000000E+00  0.00000000E+00
  0.00000000E+00  0.00000000E+00  0.00000000E+00
  0.00000000E+00  0.00000000E+00  0.00000000E+00
  0.00000000E+00  0.00000000E+00  0.00000000E+00
  0.00000000E+00  0.00000000E+00  0.00000000E+00
  0.00000000E+00  0.00000000E+00  0.00000000E+00
  0.00000000E+00  0.00000000E+00  0.00000000E+00
  0.00000000E+00  0.00000000E+00  0.00000000E+00
  0.00000000E+00  0.00000000E+00  0.00000000E+00
  0.00000000E+00  0.00000000E+00  0.00000000E+00
  0.00000000E+00  0.00000000E+00  0.00000000E+00
  0.00000000E+00  0.00000000E+00  0.00000000E+00
  0.00000000E+00  0.00000000E+00  0.00000000E+00
  0.00000000E+00  0.00000000E+00  0.00000000E+00
  0.00000000E+00  0.00000000E+00  0.00000000E+00
  0.00000000E+00  0.00000000E+00  0.00000000E+00
  0.00000000E+00  0.00000000E+00  0.00000000E+00
  0.00000000E+00  0.00000000E+00  0.00000000E+00
  0.00000000E+00  0.00000000E+00  0.00000000E+00
  0.00000000E+00  0.00000000E+00  0.00000000E+00
  0.00000000E+00  0.00000000E+00  0.00000000E+00
  0.00000000E+00  0.00000000E+00  0.00000000E+00
  0.00000000E+00  0.00000000E+00  0.00000000E+00
  0.00000000E+00  0.00000000E+00  0.00000000E+00
  0.00000000E+00  0.00000000E+00  0.00000000E+00
  0.00000000E+00  0.00000000E+00  0.00000000E+00
  0.00000000E+00  0.00000000E+00  0.00000000E+00
  0.00000000E+00  0.00000000E+00  0.00000000E+00
  0.00000000E+00  0.00000000E+00  0.00000000E+00
  0.00000000E+00  0.00000000E+00  0.00000000E+00
  0.00000000E+00  0.00000000E+00  0.00000000E+00
  0.00000000E+00  0.00000000E+00  0.00000000E+00
  0.00000000E+00  0.00000000E+00  0.00000000E+00
  0.00000000E+00  0.00000000E+00  0.00000000E+00
  0.00000000E+00  0.00000000E+00  0.00000000E+00
  0.00000000E+00  0.00000000E+00  0.00000000E+00
  0.00000000E+00  0.00000000E+00  0.00000000E+00
  0.00000000E+00  0.00000000E+00  0.00000000E+00
  0.00000000E+00  0.00000000E+00  0.00000000E+00
  0.00000000E+00  0.00000000E+00  0.00000000E+00
  0.00000000E+00  0.00000000E+00  0.00000000E+00
  0.00000000E+00  0.00000000E+00  0.00000000E+00
  0.00000000E+00  0.00000000E+00  0.00000000E+00
  0.00000000E+00  0.00000000E+00  0.00000000E+00
  0.00000000E+00  0.00000000E+00  0.00000000E+00
  0.00000000E+00  0.00000000E+00  0.00000000E+00
  0.00000000E+00  0.00000000E+00  0.00000000E+00
  0.00000000E+00  0.00000000E+00  0.00000000E+00
  0.00000000E+00  0.00000000E+00  0.00000000E+00
  0.00000000E+00  0.00000000E+00  0.00000000E+00
  0.00000000E+00  0.00000000E+00  0.00000000E+00
  0.00000000E+00  0.00000000E+00  0.00000000E+00
  0.00000000E+00  0.00000000E+00  0.00000000E+00
  0.00000000E+00  0.00000000E+00  0.00000000E+00
  0.00000000E+00  0.00000000E+00  0.00000000E+00
  0.00000000E+00  0.00000000E+00  0.00000000E+00
  0.00000000E+00  0.00000000E+00  0.00000000E+00
  0.00000000E+00  0.00000000E+00  0.00000000E+00
  0.00000000E+00  0.00000000E+00  0.00000000E+00
  0.00000000E+00  0.00000000E+00  0.00000000E+00
  0.00000000E+00  0.00000000E+00  0.00000000E+00
  0.00000000E+00  0.00000000E+00  0.00000000E+00
  0.00000000E+00  0.00000000E+00  0.00000000E+00
  0.00000000E+00  0.00000000E+00  0.00000000E+00
  0.00000000E+00  0.00000000E+00  0.00000000E+00
  0.00000000E+00  0.00000000E+00  0.00000000E+00
  0.00000000E+00  0.00000000E+00  0.00000000E+00
  0.00000000E+00  0.00000000E+00  0.00000000E+00
  0.00000000E+00  0.00000000E+00  0.00000000E+00
  0.00000000E+00  0.00000000E+00  0.00000000E+00
  0.00000000E+00  0.00000000E+00  0.00000000E+00
  0.00000000E+00  0.00000000E+00  0.00000000E+00
  0.00000000E+00  0.00000000E+00  0.00000000E+00
  0.00000000E+00  0.00000000E+00  0.00000000E+00
  0.00000000E+00  0.00000000E+00  0.00000000E+00
  0.00000000E+00  0.00000000E+00  0.00000000E+00
  0.00000000E+00  0.00000000E+00  0.00000000E+00
  0.00000000E+00  0.00000000E+00  0.00000000E+00
  0.00000000E+00  0.00000000E+00  0.00000000E+00
  0.00000000E+00  0.00000000E+00  0.00000000E+00
  0.00000000E+00  0.00000000E+00  0.00000000E+00
  0.00000000E+00  0.00000000E+00  0.00000000E+00
  0.00000000E+00  0.00000000E+00  0.00000000E+00
  0.00000000E+00  0.00000000E+00  0.00000000E+00
  0.00000000E+00  0.00000000E+00  0.00000000E+00
  0.00000000E+00  0.00000000E+00  0.00000000E+00
  0.00000000E+00  0.00000000E+00  0.00000000E+00
  0.00000000E+00  0.00000000E+00  0.00000000E+00
  0.00000000E+00  0.00000000E+00  0.00000000E+00
