C4                                      
    1.000000000000000     
    17.2710380553999983    0.0000000000000000    0.0000000000000000
    -8.6355190276999991   14.9571577057000002    0.0000000000000000
     0.0000000000000000    0.0000000000000000   15.0000000000000000
   C    H    N 
    87     7     1
Direct
 -0.0003208871859220 -0.0000264288856068  0.2500000077966118
 -0.0004420805101855  0.1427543126939725  0.2500000112487885
 -0.0001426124192541  0.2857317500189552  0.2500000046523648
  0.0000955193751929  0.4286402448566961  0.2499999994011426
  0.0003131289589699  0.5715284208513630  0.2500000053015486
  0.0008942305576805  0.7146935212754104  0.2500000280174345
  0.0005879328148427  0.8576416582691458  0.2500000142350567
  0.1430097969016149  0.0004738931663143  0.2500000149759745
  0.1428200647857965  0.1433908197638915  0.2500000119021658
  0.1425693317383877  0.2860076134529246  0.2500000088918522
  0.1431432096435604  0.4293881211572668  0.2500000109911417
  0.1433840991713670  0.5717060768844517  0.2499999955690129
  0.1432660562168920  0.7144697856194209  0.2499999800171650
  0.1430364682707218  0.8574922642336835  0.2500000101637561
  0.2855280985409814  0.0000002700044953  0.2500000212246102
  0.2856363841032974  0.1428910513478287  0.2500000170947609
  0.2862247555155234  0.2876941652705625  0.2500000039246340
  0.2853362107337769  0.4293340864699625  0.2499999893890925
  0.2879784892124945  0.5724899321241103  0.2499999888974117
  0.2860532481025907  0.7151959434578379  0.2499999639857198
  0.2852334245459479  0.8575505388061015  0.2499999870427090
  0.4284457969032605 -0.0002660657956626  0.2500000228454544
  0.4284049794818170  0.1423210343793773  0.2500000151866559
  0.4269628614217466  0.2820553401874244  0.2500000223120586
  0.4275031348094099  0.8566601996437514  0.2499999810394765
  0.5708022354959992 -0.0006653687730822  0.2499999997404636
  0.5713149337765997  0.1421465949035004  0.2500000199794289
  0.5723323182882946  0.2854863024436346  0.2500000137007574
  0.5697132032454735  0.8551751665723943  0.2499999730512244
  0.7129581425438850 -0.0013947503896786  0.2499999920709759
  0.7140871651210846  0.1422513096511054  0.2500000104928564
  0.7143847522625362  0.2852452527391409  0.2500000142567610
  0.7139627195701038  0.4274018077340979  0.2500000050485471
  0.7176524006845370  0.5732160513159652  0.2499999848565556
  0.7171835505358171  0.7148725816328761  0.2499999607943127
  0.7118021766727488  0.8557047081481528  0.2499999757284242
  0.8562609937639528 -0.0006266368270550  0.2500000000903988
  0.8565468638399061  0.1422763562242886  0.2500000045827403
  0.8569708064937487  0.2852710424014658  0.2500000055246899
  0.8573788555397819  0.4282948821905328  0.2499999996083396
  0.8577533888568399  0.5717261082706011  0.2500000012450875
  0.8588490585693582  0.7150585928513287  0.2499999959638685
  0.8569619578221926  0.8567619555880164  0.2499999918128982
  0.0474961515128371  0.0954218871896602  0.2500000111824122
  0.0470910950697911  0.2379223255987928  0.2500000106058993
  0.0475448286104918  0.3811724004098165  0.2500000045970861
  0.0480577611296789  0.5239822562937886  0.2499999992667484
  0.0480855665365514  0.6668919926568091  0.2500000098728078
  0.0479686319479446  0.8098554989570266  0.2500000232920002
  0.0477272977096490  0.9526311663175486  0.2500000106250330
  0.1903666389904506  0.0954062833210513  0.2500000149340166
  0.1903191217655001  0.2386916071459015  0.2500000074771501
  0.1897341365301720  0.3811818361065494  0.2500000058252335
  0.1915367332791779  0.5248014316943226  0.2500000043211354
  0.1907614539253311  0.6670555408105758  0.2499999741083586
  0.1904212823892709  0.8098146377730929  0.2499999865476963
  0.1905510585722873  0.9526050512912023  0.2500000165515087
  0.3332741666228760  0.0953432396197676  0.2500000187839983
  0.3340785935231382  0.2382138382203791  0.2500000153473199
  0.3307229453197899  0.3806326999329605  0.2499999902917789
  0.3321583195464513  0.5238652909049687  0.2499999821433584
  0.3369334157468036  0.6706303620454307  0.2499999741499887
  0.3327941632155516  0.8099484040323505  0.2499999715608011
  0.3330059265182699  0.9524500791214644  0.2500000151595077
  0.4761251923345182  0.0947019162949461  0.2500000223206666
  0.4756006316200825  0.2373624791343179  0.2500000176830918
  0.4720425339720404  0.8060008791924362  0.2499999753561209
  0.4757812058891664  0.9520301727126350  0.2500000024116404
  0.6186162155919690  0.0944817253240493  0.2500000128833870
  0.6192791241597504  0.2374136187749505  0.2500000157264794
  0.6211180318700783  0.3787216897525099  0.2500000072744538
  0.6183944159438044  0.8106244233042281  0.2499999700569623
  0.6175161282539380  0.9508501285789641  0.2499999859219119
  0.7612773743976463  0.0944263811134310  0.2500000021351183
  0.7618877048987307  0.2374558404580893  0.2500000131154601
  0.7621988990263139  0.3804406382266145  0.2500000082942604
  0.7619008752804375  0.5246271772104770  0.2499999957136969
  0.7634894859731911  0.6671967836695127  0.2499999760393200
  0.7609534266266522  0.8075630441674654  0.2499999733227739
  0.7606396261083904  0.9512161618623277  0.2499999882755834
  0.9040758391382163  0.0944493110752215  0.2500000069234424
  0.9044343764431498  0.2376748012674423  0.2500000040953230
  0.9047347404686719  0.3808357710595833  0.2499999993930805
  0.9050898551322629  0.5239100395785968  0.2500000018500801
  0.9056090583367947  0.6669328411196136  0.2500000121117069
  0.9052796568258796  0.8099249754074637  0.2500000008502736
  0.9042827483837695  0.9519035896081151  0.2500000012781670
  0.4632813024224038  0.3545573110305853  0.2500000138810111
  0.4034795349235683  0.4192837789581127  0.2499999878142226
  0.4050697164602662  0.5603151100408594  0.2499999795467287
  0.6444390582345104  0.6760271499829037  0.2499999678765409
  0.6449163585544857  0.5395183342461898  0.2499999887792436
  0.5850352472594961  0.4151310338719429  0.2499999986583154
  0.5794269882804112  0.7380020672932011  0.2499999800166141
  0.4269597656003492  0.7156007762202973  0.2499999790955556
 
  0.00000000E+00  0.00000000E+00  0.00000000E+00
  0.00000000E+00  0.00000000E+00  0.00000000E+00
  0.00000000E+00  0.00000000E+00  0.00000000E+00
  0.00000000E+00  0.00000000E+00  0.00000000E+00
  0.00000000E+00  0.00000000E+00  0.00000000E+00
  0.00000000E+00  0.00000000E+00  0.00000000E+00
  0.00000000E+00  0.00000000E+00  0.00000000E+00
  0.00000000E+00  0.00000000E+00  0.00000000E+00
  0.00000000E+00  0.00000000E+00  0.00000000E+00
  0.00000000E+00  0.00000000E+00  0.00000000E+00
  0.00000000E+00  0.00000000E+00  0.00000000E+00
  0.00000000E+00  0.00000000E+00  0.00000000E+00
  0.00000000E+00  0.00000000E+00  0.00000000E+00
  0.00000000E+00  0.00000000E+00  0.00000000E+00
  0.00000000E+00  0.00000000E+00  0.00000000E+00
  0.00000000E+00  0.00000000E+00  0.00000000E+00
  0.00000000E+00  0.00000000E+00  0.00000000E+00
  0.00000000E+00  0.00000000E+00  0.00000000E+00
  0.00000000E+00  0.00000000E+00  0.00000000E+00
  0.00000000E+00  0.00000000E+00  0.00000000E+00
  0.00000000E+00  0.00000000E+00  0.00000000E+00
  0.00000000E+00  0.00000000E+00  0.00000000E+00
  0.00000000E+00  0.00000000E+00  0.00000000E+00
  0.00000000E+00  0.00000000E+00  0.00000000E+00
  0.00000000E+00  0.00000000E+00  0.00000000E+00
  0.00000000E+00  0.00000000E+00  0.00000000E+00
  0.00000000E+00  0.00000000E+00  0.00000000E+00
  0.00000000E+00  0.00000000E+00  0.00000000E+00
  0.00000000E+00  0.00000000E+00  0.00000000E+00
  0.00000000E+00  0.00000000E+00  0.00000000E+00
  0.00000000E+00  0.00000000E+00  0.00000000E+00
  0.00000000E+00  0.00000000E+00  0.00000000E+00
  0.00000000E+00  0.00000000E+00  0.00000000E+00
  0.00000000E+00  0.00000000E+00  0.00000000E+00
  0.00000000E+00  0.00000000E+00  0.00000000E+00
  0.00000000E+00  0.00000000E+00  0.00000000E+00
  0.00000000E+00  0.00000000E+00  0.00000000E+00
  0.00000000E+00  0.00000000E+00  0.00000000E+00
  0.00000000E+00  0.00000000E+00  0.00000000E+00
  0.00000000E+00  0.00000000E+00  0.00000000E+00
  0.00000000E+00  0.00000000E+00  0.00000000E+00
  0.00000000E+00  0.00000000E+00  0.00000000E+00
  0.00000000E+00  0.00000000E+00  0.00000000E+00
  0.00000000E+00  0.00000000E+00  0.00000000E+00
  0.00000000E+00  0.00000000E+00  0.00000000E+00
  0.00000000E+00  0.00000000E+00  0.00000000E+00
  0.00000000E+00  0.00000000E+00  0.00000000E+00
  0.00000000E+00  0.00000000E+00  0.00000000E+00
  0.00000000E+00  0.00000000E+00  0.00000000E+00
  0.00000000E+00  0.00000000E+00  0.00000000E+00
  0.00000000E+00  0.00000000E+00  0.00000000E+00
  0.00000000E+00  0.00000000E+00  0.00000000E+00
  0.00000000E+00  0.00000000E+00  0.00000000E+00
  0.00000000E+00  0.00000000E+00  0.00000000E+00
  0.00000000E+00  0.00000000E+00  0.00000000E+00
  0.00000000E+00  0.00000000E+00  0.00000000E+00
  0.00000000E+00  0.00000000E+00  0.00000000E+00
  0.00000000E+00  0.00000000E+00  0.00000000E+00
  0.00000000E+00  0.00000000E+00  0.00000000E+00
  0.00000000E+00  0.00000000E+00  0.00000000E+00
  0.00000000E+00  0.00000000E+00  0.00000000E+00
  0.00000000E+00  0.00000000E+00  0.00000000E+00
  0.00000000E+00  0.00000000E+00  0.00000000E+00
  0.00000000E+00  0.00000000E+00  0.00000000E+00
  0.00000000E+00  0.00000000E+00  0.00000000E+00
  0.00000000E+00  0.00000000E+00  0.00000000E+00
  0.00000000E+00  0.00000000E+00  0.00000000E+00
  0.00000000E+00  0.00000000E+00  0.00000000E+00
  0.00000000E+00  0.00000000E+00  0.00000000E+00
  0.00000000E+00  0.00000000E+00  0.00000000E+00
  0.00000000E+00  0.00000000E+00  0.00000000E+00
  0.00000000E+00  0.00000000E+00  0.00000000E+00
  0.00000000E+00  0.00000000E+00  0.00000000E+00
  0.00000000E+00  0.00000000E+00  0.00000000E+00
  0.00000000E+00  0.00000000E+00  0.00000000E+00
  0.00000000E+00  0.00000000E+00  0.00000000E+00
  0.00000000E+00  0.00000000E+00  0.00000000E+00
  0.00000000E+00  0.00000000E+00  0.00000000E+00
  0.00000000E+00  0.00000000E+00  0.00000000E+00
  0.00000000E+00  0.00000000E+00  0.00000000E+00
  0.00000000E+00  0.00000000E+00  0.00000000E+00
  0.00000000E+00  0.00000000E+00  0.00000000E+00
  0.00000000E+00  0.00000000E+00  0.00000000E+00
  0.00000000E+00  0.00000000E+00  0.00000000E+00
  0.00000000E+00  0.00000000E+00  0.00000000E+00
  0.00000000E+00  0.00000000E+00  0.00000000E+00
  0.00000000E+00  0.00000000E+00  0.00000000E+00
  0.00000000E+00  0.00000000E+00  0.00000000E+00
  0.00000000E+00  0.00000000E+00  0.00000000E+00
  0.00000000E+00  0.00000000E+00  0.00000000E+00
  0.00000000E+00  0.00000000E+00  0.00000000E+00
  0.00000000E+00  0.00000000E+00  0.00000000E+00
  0.00000000E+00  0.00000000E+00  0.00000000E+00
  0.00000000E+00  0.00000000E+00  0.00000000E+00
  0.00000000E+00  0.00000000E+00  0.00000000E+00
