C    F    N    H    O 
    1.000000000000000     
  17.2710380553999983   0.0000000000000000   0.0000000000000000
  -8.6355190276999991  14.9571577057000002   0.0000000000000000
   0.0000000000000000   0.0000000000000000  15.0000000000000000
C    F    N    H    O 
82  2  6  2  1  
Selective dynamics
Direct
  0.9986964015311756  0.0014492311282491  0.5025480994164865 T T T
  0.9989595367039892  0.1444867067798318  0.5017333162499752 T T T
  0.9997868584098250  0.2881329739484624  0.5010666233067069 T T T
  0.0002400455215650  0.4312229483364683  0.5012320340352747 T T T
  0.0005887584797424  0.5739565912195261  0.5020790435704147 T T T
  0.0009595127800425  0.7168473375836523  0.5026729447390078 T T T
  0.9995928464899260  0.8594780135804324  0.5027124342322983 T T T
  0.1430248400870416  0.0031209448711196  0.5022727813030449 T T T
  0.1426680249505907  0.1454330381462577  0.5022482885284770 T T T
  0.1420738159852512  0.2871272792592516  0.5021122861813800 T T T
  0.1437349464752114  0.4312656418259884  0.5020964746978789 T T T
  0.1446800539228088  0.5739470969388445  0.5025114596457575 T T T
  0.1440355110084209  0.7168279213169957  0.5026708834647425 T T T
  0.1432222025365090  0.8600147581755848  0.5023646867756373 T T T
  0.2860273750134870  0.0033378699529629  0.5028509970066822 T T T
  0.2866858212232632  0.1470895966680379  0.5031727228926045 T T T
  0.2876313748725907  0.2925580646634955  0.5046745123750886 T T T
  0.2849651684517408  0.4260427680770030  0.5056981793039553 T T T
  0.2902508401414383  0.5741499225718234  0.5048496885106599 T T T
  0.2874667298090042  0.7175023369630393  0.5038391009176190 T T T
  0.2862249630508460  0.8603762750411557  0.5032504222860726 T T T
  0.4289949358672129  0.0037377478098205  0.5036344437340421 T T T
  0.4290208999098021  0.1475998927235129  0.5037613872030755 T T T
  0.4292436910955499  0.8600880589115532  0.5041820266999443 T T T
  0.5712307589672485  0.0031836938981018  0.5037183806753306 T T T
  0.5712366472064664  0.1466743303909802  0.5035914879851656 T T T
  0.5734976199647750  0.2935035753800523  0.5044591044872321 T T T
  0.5732001637880791  0.8587806925238062  0.5044662581448810 T T T
  0.7134049517201193  0.0022755736487616  0.5033866466663383 T T T
  0.7139844999923181  0.1459889493476479  0.5026138193558641 T T T
  0.7136874857253657  0.2891745862538199  0.5029297714548833 T T T
  0.7094992026251070  0.4290904186083548  0.5050459882923318 T T T
  0.7083341828028309  0.8576947674748235  0.5051579688337384 T T T
  0.8555542377339432  0.0012812505587806  0.5031626011892164 T T T
  0.8564289014021946  0.1451426022483769  0.5019035166873009 T T T
  0.8567179796408446  0.2884346804278259  0.5015116083123641 T T T
  0.8566797936346854  0.4313536848237385  0.5023365224375725 T T T
  0.8567310895211490  0.5737577510269790  0.5037241825436807 T T T
  0.8579310140380593  0.7162066722296250  0.5047263629157259 T T T
  0.8542944161420152  0.8573270222420375  0.5042870105485232 T T T
  0.0469430562367234  0.0971104747866107  0.5020432384942692 T T T
  0.0465690856840828  0.2396432704656470  0.5013771069465818 T T T
  0.0478886043256650  0.3836531530419954  0.5011946543193684 T T T
  0.0488102294242599  0.5265258483553811  0.5018006870538343 T T T
  0.0485522750742517  0.6692973370451309  0.5023798594013458 T T T
  0.0477345515003419  0.8121124688533858  0.5024508361330774 T T T
  0.0472572011717116  0.9546761168492878  0.5024119537462332 T T T
  0.1908621071605130  0.0983949421743414  0.5025466681129290 T T T
  0.1908104322428685  0.2407687846375013  0.5026529342110284 T T T
  0.1895641308703768  0.3819864329874478  0.5028639079293800 T T T
  0.1932006284437292  0.5267630188343317  0.5029552934354230 T T T
  0.1919975221899621  0.6694752753420794  0.5030599263062010 T T T
  0.1911191751000968  0.8124366066071859  0.5027372203020257 T T T
  0.1908441497431395  0.9554345390968096  0.5024022944972129 T T T
  0.3338548679666057  0.0992061274812154  0.5031743251281707 T T T
  0.3380430574809937  0.2433154903957938  0.5042798562576308 T T T
  0.3392075804833197  0.6730731458387982  0.5046026899611625 T T T
  0.3341714205880691  0.8126168840077685  0.5038675871771654 T T T
  0.3335607884090312  0.9556971747132716  0.5032770353996492 T T T
  0.4763077318569364  0.0992028398256703  0.5036781854009826 T T T
  0.4740371984079229  0.2437702228590034  0.5042872971977969 T T T
  0.4743434229666098  0.8093281559631488  0.5044680769924096 T T T
  0.4763678966667112  0.9557291718733382  0.5039409079629040 T T T
  0.6185885472711404  0.0985625448501293  0.5032634848793398 T T T
  0.6185396852051646  0.2423840077909078  0.5036508937099189 T T T
  0.6183391520194785  0.9546425558259344  0.5039110158680156 T T T
  0.7613107593718912  0.0980098977576168  0.5025583732575825 T T T
  0.7615369678063070  0.2411528600610603  0.5022243611539334 T T T
  0.7608426760118752  0.3842326931682504  0.5033554390706116 T T T
  0.7599105884768963  0.5287393667499422  0.5060661397768488 T T T
  0.7625500598149528  0.6648862760389942  0.5077877615189905 T T T
  0.7572311810565643  0.8076757806765742  0.5061480049806172 T T T
  0.7600843358209205  0.9538393574834596  0.5038578898482342 T T T
  0.9034869407699204  0.0965928866469908  0.5021321654403140 T T T
  0.9043087035896590  0.2406208508190821  0.5012385305328166 T T T
  0.9044952968944868  0.3839052985523630  0.5014632061688092 T T T
  0.9048635866190510  0.5265635767514807  0.5024725145919827 T T T
  0.9054279416973116  0.6688548195822923  0.5035954715144738 T T T
  0.9037747992219948  0.8113050041952737  0.5038535497329883 T T T
  0.9028303071289236  0.9530254560020024  0.5032440082499545 T T T
  0.7153532164151147  0.7137080998924116  0.5090488548553052 T T T
  0.3320921246215712  0.5220393373260505  0.5069690211234527 T T T
  0.6262084393211963  0.6640949374108809  0.5130393903101539 T T T
  0.4212561384168784  0.5616516903967872  0.5105434465917813 T T T
  0.4281075637752907  0.2881600232789591  0.5047566979531626 T T T
  0.4290990513925011  0.7191636454740200  0.5048195230698983 T T T
  0.7159820318961811  0.5740722835338965  0.5094269699108462 T T T
  0.3315931528632158  0.3818514575504784  0.5073548691208440 T T T
  0.6194159324382925  0.3838332282265409  0.5052747094085654 T T T
  0.6184346651312553  0.8138529846938846  0.5051918678785560 T T T
  0.5233116882956577  0.5201836093843319  0.4292543108448328 T T T
  0.5262595522890637  0.4341054834689363  0.4419437051975180 T T T
  0.5257962721510608  0.4735375247985456  0.3953361829999977 T T F
