C4                                      
    1.000000000000000     
    17.2710380553999983    0.0000000000000000    0.0000000000000000
    -8.6355190276999991   14.9571577057000002    0.0000000000000000
     0.0000000000000000    0.0000000000000000   15.0000000000000000
   C    H    N 
    84     4     4
Direct
 -0.0003907026756262 -0.0005270491576640  0.2500001090158604
 -0.0001359554787849  0.1425687328237788  0.2500001266236785
  0.0001886890290961  0.2856623705195090  0.2500005008768681
 -0.0000992651856186  0.4284932286651920  0.2500005163407416
 -0.0001732045710718  0.5711970499292826  0.2500004249285113
  0.0008509859233646  0.7142159726320217  0.2500005728444818
  0.0003410024674792  0.8570306520341981  0.2499998921113280
  0.1433048771789874  0.0005282102431174  0.2500003568295486
  0.1434447115444082  0.1433895488841004  0.2499997243826463
  0.1436785459349191  0.2859309808929923  0.2500008061552054
  0.1437121168385727  0.4291452756195882  0.2500014658518231
  0.1434903054345425  0.5714823565375162  0.2500012098602707
  0.1434075456512053  0.7143140950064244  0.2500022417238008
  0.1431811488024012  0.8574761470552835  0.2500008168013835
  0.2860302543182014  0.0004478928483075  0.2500017190057374
  0.2867483351243119  0.1433722612771907  0.2499995337361011
  0.2884872435057779  0.2879023735806355  0.2499990199772873
  0.2868493849999930  0.4292546964496068  0.2499996842969387
  0.2884990452188347  0.5724313098125365  0.2499981933088509
  0.2863263856665748  0.7152843854993068  0.2500001531922559
  0.2855602258607657  0.8578550286703647  0.2500032249778120
  0.4288579177945352  0.0009722932476352  0.2500021251892436
  0.4292599697635360  0.1447481769584945  0.2499997209080543
  0.4277543930305924  0.8572695598988800  0.2500022630393015
  0.5710279574348078  0.0001991811272546  0.2500009870903674
  0.5713837322774795  0.1438256575302962  0.2500000366663347
  0.5735876972325640  0.2907096064079995  0.2500002351028925
  0.5699508140191876  0.8555412795982924  0.2499996894509350
  0.7130875744119546 -0.0014871646182180  0.2499999353262253
  0.7140328484337061  0.1428122923691292  0.2499997271006239
  0.7136609423963062  0.2862230119845664  0.2499990071890897
  0.7093302708475667  0.4262975869267776  0.2499988123062876
  0.7163330993362891  0.7113255412264823  0.2499990182347878
  0.7116323877577095  0.8544643384073595  0.2499994646956151
  0.8562365691141114 -0.0010982624004459  0.2499999769275472
  0.8566251288920909  0.1422955577921720  0.2499998392999072
  0.8567040200256012  0.2854807547616310  0.2499989324701429
  0.8563196172128523  0.4283691415347495  0.2499989225824313
  0.8563280542527096  0.5709889456932546  0.2500005648680477
  0.8583910705704813  0.7136157261778792  0.2499995593540870
  0.8562962925145375  0.8553835151692659  0.2499998034972599
  0.0477961673254141  0.0951778312334396  0.2500000979566250
  0.0478010177106525  0.2379066886442790  0.2500006053365224
  0.0478089424316441  0.3811255968325509  0.2500013541610993
  0.0479119383772751  0.5238189128719440  0.2499994292655604
  0.0480767179121576  0.6665682159849285  0.2500003164014904
  0.0479528781477976  0.8094970484448951  0.2500002318496665
  0.0477586505285428  0.9522391460468177  0.2499984891078796
  0.1910811545421800  0.0956905411229573  0.2499999645495697
  0.1919309950466591  0.2387679215431302  0.2499996998513169
  0.1908572861657787  0.3811523230466690  0.2500010375330393
  0.1919387496724980  0.5246522763027616  0.2500002705630148
  0.1909502966261147  0.6669117765909994  0.2500015607208784
  0.1906484755873795  0.8098354271384554  0.2500024897992381
  0.1909079941513878  0.9527844755367582  0.2500011310403515
  0.3340817502494643  0.0959728858852850  0.2500002761644464
  0.3378028658026224  0.2389344716529715  0.2499988198663718
  0.3331852490214962  0.3809643562211716  0.2499992288729085
  0.3330239350684494  0.5239211702548819  0.2499980141607263
  0.3373064271344506  0.6707550155683003  0.2499977011259526
  0.3330306918334985  0.8101975531322260  0.2500024035592021
  0.3334151312944911  0.9529756029468811  0.2500027285211239
  0.4764636523652825  0.0964172353338451  0.2500002225795415
  0.4743026915463763  0.2409392594040808  0.2499992657780651
  0.4722696939480700  0.8065299448294172  0.2499998772751667
  0.4760292314917606  0.9529031994134179  0.2500024433083282
  0.6185905104576611  0.0955855208394931  0.2500009422012290
  0.6185315832585089  0.2394894884184610  0.2499996448610154
  0.6182051594474340  0.8103235005488343  0.2499994226182123
  0.6176644416711065  0.9512872685902635  0.2500004053002094
  0.7612541512401808  0.0945692746805130  0.2499999814168611
  0.7615134428996334  0.2380909958965279  0.2499992156527606
  0.7606702601813975  0.3813402045243468  0.2499986399549396
  0.7594798271171047  0.5261568286182033  0.2499990994953805
  0.7628154574033216  0.6631124864155968  0.2499990906558191
  0.7600793018119399  0.8048975815489291  0.2499992722528943
  0.7605425369409963  0.9504850189343669  0.2499985805648029
  0.9041877525198113  0.0942567083719124  0.2499999201363076
  0.9045115418372466  0.2378038890495633  0.2499997320671444
  0.9042000064588973  0.3810073267500415  0.2499992000774303
  0.9041756146459993  0.5236407425497420  0.2499998656720028
  0.9054315728651431  0.6661352971512801  0.2500000536580483
  0.9047952414460738  0.8088022762353696  0.2499998987541799
  0.9039315698615928  0.9510233546742163  0.2499999778851402
  0.4061619836581584  0.4166846475113372  0.2499990358611179
  0.4059231092474511  0.5605580500414611  0.2499982671325521
  0.6436873682262091  0.6712797749604406  0.2499990680869745
  0.5789943119101483  0.7376726519522316  0.2499993674924817
  0.4278936749889024  0.2847242980170690  0.2499989243451571
  0.4272944592777222  0.7160954966398820  0.2499975001422056
  0.7156493461377453  0.5716035751873675  0.2499988963264452
  0.6193827291909701  0.3810608921804646  0.2499994239002898
 
  0.00000000E+00  0.00000000E+00  0.00000000E+00
  0.00000000E+00  0.00000000E+00  0.00000000E+00
  0.00000000E+00  0.00000000E+00  0.00000000E+00
  0.00000000E+00  0.00000000E+00  0.00000000E+00
  0.00000000E+00  0.00000000E+00  0.00000000E+00
  0.00000000E+00  0.00000000E+00  0.00000000E+00
  0.00000000E+00  0.00000000E+00  0.00000000E+00
  0.00000000E+00  0.00000000E+00  0.00000000E+00
  0.00000000E+00  0.00000000E+00  0.00000000E+00
  0.00000000E+00  0.00000000E+00  0.00000000E+00
  0.00000000E+00  0.00000000E+00  0.00000000E+00
  0.00000000E+00  0.00000000E+00  0.00000000E+00
  0.00000000E+00  0.00000000E+00  0.00000000E+00
  0.00000000E+00  0.00000000E+00  0.00000000E+00
  0.00000000E+00  0.00000000E+00  0.00000000E+00
  0.00000000E+00  0.00000000E+00  0.00000000E+00
  0.00000000E+00  0.00000000E+00  0.00000000E+00
  0.00000000E+00  0.00000000E+00  0.00000000E+00
  0.00000000E+00  0.00000000E+00  0.00000000E+00
  0.00000000E+00  0.00000000E+00  0.00000000E+00
  0.00000000E+00  0.00000000E+00  0.00000000E+00
  0.00000000E+00  0.00000000E+00  0.00000000E+00
  0.00000000E+00  0.00000000E+00  0.00000000E+00
  0.00000000E+00  0.00000000E+00  0.00000000E+00
  0.00000000E+00  0.00000000E+00  0.00000000E+00
  0.00000000E+00  0.00000000E+00  0.00000000E+00
  0.00000000E+00  0.00000000E+00  0.00000000E+00
  0.00000000E+00  0.00000000E+00  0.00000000E+00
  0.00000000E+00  0.00000000E+00  0.00000000E+00
  0.00000000E+00  0.00000000E+00  0.00000000E+00
  0.00000000E+00  0.00000000E+00  0.00000000E+00
  0.00000000E+00  0.00000000E+00  0.00000000E+00
  0.00000000E+00  0.00000000E+00  0.00000000E+00
  0.00000000E+00  0.00000000E+00  0.00000000E+00
  0.00000000E+00  0.00000000E+00  0.00000000E+00
  0.00000000E+00  0.00000000E+00  0.00000000E+00
  0.00000000E+00  0.00000000E+00  0.00000000E+00
  0.00000000E+00  0.00000000E+00  0.00000000E+00
  0.00000000E+00  0.00000000E+00  0.00000000E+00
  0.00000000E+00  0.00000000E+00  0.00000000E+00
  0.00000000E+00  0.00000000E+00  0.00000000E+00
  0.00000000E+00  0.00000000E+00  0.00000000E+00
  0.00000000E+00  0.00000000E+00  0.00000000E+00
  0.00000000E+00  0.00000000E+00  0.00000000E+00
  0.00000000E+00  0.00000000E+00  0.00000000E+00
  0.00000000E+00  0.00000000E+00  0.00000000E+00
  0.00000000E+00  0.00000000E+00  0.00000000E+00
  0.00000000E+00  0.00000000E+00  0.00000000E+00
  0.00000000E+00  0.00000000E+00  0.00000000E+00
  0.00000000E+00  0.00000000E+00  0.00000000E+00
  0.00000000E+00  0.00000000E+00  0.00000000E+00
  0.00000000E+00  0.00000000E+00  0.00000000E+00
  0.00000000E+00  0.00000000E+00  0.00000000E+00
  0.00000000E+00  0.00000000E+00  0.00000000E+00
  0.00000000E+00  0.00000000E+00  0.00000000E+00
  0.00000000E+00  0.00000000E+00  0.00000000E+00
  0.00000000E+00  0.00000000E+00  0.00000000E+00
  0.00000000E+00  0.00000000E+00  0.00000000E+00
  0.00000000E+00  0.00000000E+00  0.00000000E+00
  0.00000000E+00  0.00000000E+00  0.00000000E+00
  0.00000000E+00  0.00000000E+00  0.00000000E+00
  0.00000000E+00  0.00000000E+00  0.00000000E+00
  0.00000000E+00  0.00000000E+00  0.00000000E+00
  0.00000000E+00  0.00000000E+00  0.00000000E+00
  0.00000000E+00  0.00000000E+00  0.00000000E+00
  0.00000000E+00  0.00000000E+00  0.00000000E+00
  0.00000000E+00  0.00000000E+00  0.00000000E+00
  0.00000000E+00  0.00000000E+00  0.00000000E+00
  0.00000000E+00  0.00000000E+00  0.00000000E+00
  0.00000000E+00  0.00000000E+00  0.00000000E+00
  0.00000000E+00  0.00000000E+00  0.00000000E+00
  0.00000000E+00  0.00000000E+00  0.00000000E+00
  0.00000000E+00  0.00000000E+00  0.00000000E+00
  0.00000000E+00  0.00000000E+00  0.00000000E+00
  0.00000000E+00  0.00000000E+00  0.00000000E+00
  0.00000000E+00  0.00000000E+00  0.00000000E+00
  0.00000000E+00  0.00000000E+00  0.00000000E+00
  0.00000000E+00  0.00000000E+00  0.00000000E+00
  0.00000000E+00  0.00000000E+00  0.00000000E+00
  0.00000000E+00  0.00000000E+00  0.00000000E+00
  0.00000000E+00  0.00000000E+00  0.00000000E+00
  0.00000000E+00  0.00000000E+00  0.00000000E+00
  0.00000000E+00  0.00000000E+00  0.00000000E+00
  0.00000000E+00  0.00000000E+00  0.00000000E+00
  0.00000000E+00  0.00000000E+00  0.00000000E+00
  0.00000000E+00  0.00000000E+00  0.00000000E+00
  0.00000000E+00  0.00000000E+00  0.00000000E+00
  0.00000000E+00  0.00000000E+00  0.00000000E+00
  0.00000000E+00  0.00000000E+00  0.00000000E+00
  0.00000000E+00  0.00000000E+00  0.00000000E+00
  0.00000000E+00  0.00000000E+00  0.00000000E+00
  0.00000000E+00  0.00000000E+00  0.00000000E+00
