C4                                      
    1.000000000000000     
    17.2710380553999983    0.0000000000000000    0.0000000000000000
    -8.6355190276999991   14.9571577057000002    0.0000000000000000
     0.0000000000000000    0.0000000000000000   15.0000000000000000
   C    H    N 
    86     6     2
Direct
  0.0007646701346994  0.0003480792170687  0.2500003021044057
  0.0001259555568265  0.1427801808044764  0.2500002402061241
 -0.0004140165716011  0.2853338352438139  0.2500001721117243
 -0.0008882140612090  0.4282149459293802  0.2500003909931833
 -0.0008511921327247  0.5712022915227295  0.2500001778245647
  0.0004519813781937  0.7145303346835823  0.2499989784619213
  0.0017692794378275  0.8580722200113606  0.2500000813265509
  0.1438229455878228  0.0003960487685259  0.2500002644753115
  0.1436135086647027  0.1431337146154342  0.2500002500039734
  0.1429829368958123  0.2850113435739875  0.2500002854567195
  0.1421747770224297  0.4277688091635887  0.2500002002092286
  0.1423811340991073  0.5706790327942312  0.2500001876642665
  0.1428859951452245  0.7137923760289316  0.2500000116036216
  0.1434424593107446  0.8568966058518699  0.2500000340452350
  0.2856482191696380 -0.0010917210765792  0.2500004375215271
  0.2864135117398525  0.1423241782284484  0.2500004655960085
  0.2880317647797068  0.2868483951844132  0.2499998487455351
  0.2849386020933876  0.4272166251047401  0.2500003317062257
  0.2858163853341116  0.5697188246439103  0.2500002783600973
  0.2855487188611218  0.7139020253663109  0.2500002974697223
  0.2858566159071337  0.8566832703886547  0.2500002062370548
  0.4288104777800395 -0.0002951785018159  0.2500003618151570
  0.4277731797924977  0.1420140524944293  0.2499999365089830
  0.4269127976576025  0.7156145894448840  0.2500003133120471
  0.4287287322023711  0.8568601021748592  0.2500002287476995
  0.5716102505858890 -0.0002430740467734  0.2500003892072324
  0.5710268208539486  0.1425902993158759  0.2499998778393438
  0.5697776298110393  0.2858776380493202  0.2499991773807755
  0.5728157376422942  0.8565557732353409  0.2500002982557643
  0.7146311535583015 -0.0005459530326406  0.2500002131396504
  0.7141609669264479  0.1428996556181002  0.2500004000337577
  0.7128922730941171  0.2860797293468196  0.2499992164944645
  0.7113403631545974  0.4286576225162562  0.2499992246502735
  0.7165403773413132  0.5767395077305878  0.2499999086898616
  0.7145526840832119  0.8561913748135311  0.2500002575283055
  0.8575934851566273  0.0001028332658283  0.2500002595142987
  0.8569685276319436  0.1427973849494088  0.2500001505742731
  0.8562748394820713  0.2856190934282471  0.2500003965481102
  0.8558292998874694  0.4286366485989339  0.2499998735427640
  0.8561826780105343  0.5722508720052893  0.2499996713010227
  0.8589942609147169  0.7163264795820453  0.2500003725880952
  0.8586543147015223  0.8575208907206837  0.2500002524168132
  0.0483165889319257  0.0955877373801783  0.2500002662224041
  0.0473956950503587  0.2376594155758726  0.2500002490695360
  0.0466665456647190  0.3804577799003373  0.2500002039104385
  0.0470077392163390  0.5235082104615471  0.2500002571364761
  0.0475021417755199  0.6665446350158929  0.2499995894868401
  0.0484066947933208  0.8096651484455429  0.2499995676361695
  0.0487023846892398  0.9529248675348815  0.2499983932330678
  0.1911528436997099  0.0952874113595433  0.2500002289521744
  0.1916189590449583  0.2381274504343677  0.2500000188433527
  0.1893666903456715  0.3797517643413510  0.2500002562169093
  0.1898925421825327  0.5228669691803801  0.2500002235892424
  0.1901869615861031  0.6662023895907712  0.2500002693990333
  0.1908404356322256  0.8092032216586900  0.2500001960453985
  0.1908444663606015  0.9519526139077664  0.2500003252950699
  0.3330679214067622  0.0941274165841650  0.2500005152320730
  0.3372162665225444  0.2377198254254206  0.2500000404352014
  0.3319189546161713  0.3796300673953120  0.2500000377635379
  0.3303780906800236  0.5212736376161120  0.2500003166876910
  0.3339630860546885  0.6670021359001314  0.2500002853384719
  0.3335447084631166  0.8090443607251019  0.2500002329515651
  0.3334027442713253  0.9516642188000167  0.2500002211524490
  0.4760626219947313  0.0948075620143339  0.2500003819476186
  0.4722127895642572  0.2372209955159792  0.2499990829364689
  0.4759097302549972  0.8088179466563070  0.2500003207080427
  0.4764402086101315  0.9522044579393771  0.2500002306227070
  0.6187395195125315  0.0949672720338113  0.2500004328468415
  0.6175586154007950  0.2379953014952694  0.2499988813594646
  0.6179786553645478  0.3793467928660192  0.2499959134704597
  0.6216239217522563  0.8115674463871324  0.2500002793598297
  0.6195004539476640  0.9519203337611654  0.2500002777791844
  0.7619129104479077  0.0952033506689317  0.2500001945988708
  0.7610597992652762  0.2382049394035454  0.2500003574096789
  0.7602457733185309  0.3815245635286682  0.2499988859726612
  0.7599624991078047  0.5266492055624419  0.2499990808838885
  0.7634182845024868  0.6713781601759615  0.2499999854359724
  0.7628777452456742  0.8063212096706226  0.2500002497928159
  0.7624374131048159  0.9518094201160073  0.2500002517552666
  0.9047873951929222  0.0950144505318624  0.2500002148779265
  0.9042114705520377  0.2380095269806780  0.2500001896192493
  0.9036095807044809  0.3810823187692257  0.2500004245231685
  0.9036130822230868  0.5241688607594139  0.2500003352071550
  0.9049489659754905  0.6673008973164620  0.2499992937706872
  0.9067757170641432  0.8108870590363834  0.2499997585316357
  0.9054894842122337  0.9525919637813024  0.2500003018531571
  0.4048330018212902  0.4163887013037621  0.2500002280944074
  0.4031271837649879  0.5553697558966985  0.2500001941059257
  0.6438889433559912  0.5441075663974572  0.2500001080289021
  0.5787352444788769  0.4127528190097139  0.2499977502967261
  0.5884219995574418  0.7389340146794652  0.2500002021843715
  0.4633800152500924  0.6795720666341366  0.2500002186829905
  0.4271733474745252  0.2826449907757923  0.2499995493301440
  0.7173708490149491  0.7167703012684452  0.2500005072049850
 
  0.00000000E+00  0.00000000E+00  0.00000000E+00
  0.00000000E+00  0.00000000E+00  0.00000000E+00
  0.00000000E+00  0.00000000E+00  0.00000000E+00
  0.00000000E+00  0.00000000E+00  0.00000000E+00
  0.00000000E+00  0.00000000E+00  0.00000000E+00
  0.00000000E+00  0.00000000E+00  0.00000000E+00
  0.00000000E+00  0.00000000E+00  0.00000000E+00
  0.00000000E+00  0.00000000E+00  0.00000000E+00
  0.00000000E+00  0.00000000E+00  0.00000000E+00
  0.00000000E+00  0.00000000E+00  0.00000000E+00
  0.00000000E+00  0.00000000E+00  0.00000000E+00
  0.00000000E+00  0.00000000E+00  0.00000000E+00
  0.00000000E+00  0.00000000E+00  0.00000000E+00
  0.00000000E+00  0.00000000E+00  0.00000000E+00
  0.00000000E+00  0.00000000E+00  0.00000000E+00
  0.00000000E+00  0.00000000E+00  0.00000000E+00
  0.00000000E+00  0.00000000E+00  0.00000000E+00
  0.00000000E+00  0.00000000E+00  0.00000000E+00
  0.00000000E+00  0.00000000E+00  0.00000000E+00
  0.00000000E+00  0.00000000E+00  0.00000000E+00
  0.00000000E+00  0.00000000E+00  0.00000000E+00
  0.00000000E+00  0.00000000E+00  0.00000000E+00
  0.00000000E+00  0.00000000E+00  0.00000000E+00
  0.00000000E+00  0.00000000E+00  0.00000000E+00
  0.00000000E+00  0.00000000E+00  0.00000000E+00
  0.00000000E+00  0.00000000E+00  0.00000000E+00
  0.00000000E+00  0.00000000E+00  0.00000000E+00
  0.00000000E+00  0.00000000E+00  0.00000000E+00
  0.00000000E+00  0.00000000E+00  0.00000000E+00
  0.00000000E+00  0.00000000E+00  0.00000000E+00
  0.00000000E+00  0.00000000E+00  0.00000000E+00
  0.00000000E+00  0.00000000E+00  0.00000000E+00
  0.00000000E+00  0.00000000E+00  0.00000000E+00
  0.00000000E+00  0.00000000E+00  0.00000000E+00
  0.00000000E+00  0.00000000E+00  0.00000000E+00
  0.00000000E+00  0.00000000E+00  0.00000000E+00
  0.00000000E+00  0.00000000E+00  0.00000000E+00
  0.00000000E+00  0.00000000E+00  0.00000000E+00
  0.00000000E+00  0.00000000E+00  0.00000000E+00
  0.00000000E+00  0.00000000E+00  0.00000000E+00
  0.00000000E+00  0.00000000E+00  0.00000000E+00
  0.00000000E+00  0.00000000E+00  0.00000000E+00
  0.00000000E+00  0.00000000E+00  0.00000000E+00
  0.00000000E+00  0.00000000E+00  0.00000000E+00
  0.00000000E+00  0.00000000E+00  0.00000000E+00
  0.00000000E+00  0.00000000E+00  0.00000000E+00
  0.00000000E+00  0.00000000E+00  0.00000000E+00
  0.00000000E+00  0.00000000E+00  0.00000000E+00
  0.00000000E+00  0.00000000E+00  0.00000000E+00
  0.00000000E+00  0.00000000E+00  0.00000000E+00
  0.00000000E+00  0.00000000E+00  0.00000000E+00
  0.00000000E+00  0.00000000E+00  0.00000000E+00
  0.00000000E+00  0.00000000E+00  0.00000000E+00
  0.00000000E+00  0.00000000E+00  0.00000000E+00
  0.00000000E+00  0.00000000E+00  0.00000000E+00
  0.00000000E+00  0.00000000E+00  0.00000000E+00
  0.00000000E+00  0.00000000E+00  0.00000000E+00
  0.00000000E+00  0.00000000E+00  0.00000000E+00
  0.00000000E+00  0.00000000E+00  0.00000000E+00
  0.00000000E+00  0.00000000E+00  0.00000000E+00
  0.00000000E+00  0.00000000E+00  0.00000000E+00
  0.00000000E+00  0.00000000E+00  0.00000000E+00
  0.00000000E+00  0.00000000E+00  0.00000000E+00
  0.00000000E+00  0.00000000E+00  0.00000000E+00
  0.00000000E+00  0.00000000E+00  0.00000000E+00
  0.00000000E+00  0.00000000E+00  0.00000000E+00
  0.00000000E+00  0.00000000E+00  0.00000000E+00
  0.00000000E+00  0.00000000E+00  0.00000000E+00
  0.00000000E+00  0.00000000E+00  0.00000000E+00
  0.00000000E+00  0.00000000E+00  0.00000000E+00
  0.00000000E+00  0.00000000E+00  0.00000000E+00
  0.00000000E+00  0.00000000E+00  0.00000000E+00
  0.00000000E+00  0.00000000E+00  0.00000000E+00
  0.00000000E+00  0.00000000E+00  0.00000000E+00
  0.00000000E+00  0.00000000E+00  0.00000000E+00
  0.00000000E+00  0.00000000E+00  0.00000000E+00
  0.00000000E+00  0.00000000E+00  0.00000000E+00
  0.00000000E+00  0.00000000E+00  0.00000000E+00
  0.00000000E+00  0.00000000E+00  0.00000000E+00
  0.00000000E+00  0.00000000E+00  0.00000000E+00
  0.00000000E+00  0.00000000E+00  0.00000000E+00
  0.00000000E+00  0.00000000E+00  0.00000000E+00
  0.00000000E+00  0.00000000E+00  0.00000000E+00
  0.00000000E+00  0.00000000E+00  0.00000000E+00
  0.00000000E+00  0.00000000E+00  0.00000000E+00
  0.00000000E+00  0.00000000E+00  0.00000000E+00
  0.00000000E+00  0.00000000E+00  0.00000000E+00
  0.00000000E+00  0.00000000E+00  0.00000000E+00
  0.00000000E+00  0.00000000E+00  0.00000000E+00
  0.00000000E+00  0.00000000E+00  0.00000000E+00
  0.00000000E+00  0.00000000E+00  0.00000000E+00
  0.00000000E+00  0.00000000E+00  0.00000000E+00
  0.00000000E+00  0.00000000E+00  0.00000000E+00
  0.00000000E+00  0.00000000E+00  0.00000000E+00
