C4                                      
    1.000000000000000     
    17.2710380553999983    0.0000000000000000    0.0000000000000000
    -8.6355190276999991   14.9571577057000002    0.0000000000000000
     0.0000000000000000    0.0000000000000000   15.0000000000000000
   C    F    N 
    82     2     6
Direct
  0.0005465374063039  0.0003955989139748  0.2499990906370808
 -0.0011557955574995  0.1422094726367609  0.2500005205449125
 -0.0018732272925577  0.2847249581722661  0.2500006182366281
 -0.0012396144372730  0.4279576714302992  0.2499991641192675
  0.0004103349559126  0.5714652537252966  0.2500028603725090
  0.0027661885407067  0.7154162073422665  0.2499982248632027
  0.0027701393393643  0.8586883622175092  0.2499980497228216
  0.1442228588214262  0.0014213270391475  0.2499974074275562
  0.1433280431699226  0.1441654103371176  0.2500016939296704
  0.1414595855869294  0.2851023333284166  0.2500018802686903
  0.1414657907296524  0.4275540818759025  0.2499992747451404
  0.1432499026360951  0.5704066842263776  0.2499996260371987
  0.1441621807872170  0.7139477201228419  0.2499999950681026
  0.1444987959403156  0.8578398797122182  0.2499992670094124
  0.2860563057769053  0.0003862190546759  0.2499985422177596
  0.2861735999659233  0.1447633911135350  0.2499983288583341
  0.2876096173068574  0.2927781351930908  0.2499992411077415
  0.2843940629376465  0.4277895991030176  0.2499997793508862
  0.2875643807171114  0.5660359308096042  0.2499991516855796
  0.2861397755088129  0.7125951972267506  0.2500007622987372
  0.2860382078419196  0.8568835306841497  0.2500000623872585
  0.4285966727633801  0.0000334465772618  0.2499975280698913
  0.4275919889829239  0.1434101090640992  0.2500015360330499
  0.4275675718118878  0.8557235123601816  0.2499982312651329
  0.5705035836866551 -0.0012298070191865  0.2499959317158465
  0.5705012264029492  0.1432728232334760  0.2499961634695004
  0.5691054881526353  0.2876157573824660  0.2500000665875902
  0.5691167828393151  0.8531594336524149  0.2500010208626359
  0.7125898816648042 -0.0028989717194355  0.2499997249469639
  0.7129276655697140  0.1422157590653676  0.2499984335355541
  0.7125350247549208  0.2870162766132958  0.2499984665842549
  0.7134437506117940  0.4323990420642045  0.2500004243556373
  0.7134991926186831  0.8527027282828040  0.2500003914828157
  0.8561346159062372 -0.0015284917756797  0.2500002078654217
  0.8553427860699132  0.1415082057675527  0.2500006068716328
  0.8552409519280368  0.2851490726162599  0.2500000355340437
  0.8560432646627730  0.4290532644148321  0.2499993095761635
  0.8587800967060308  0.5736641956605268  0.2499990911064608
  0.8616263445683998  0.7165888569694960  0.2499984773691961
  0.8588369327140032  0.8566644431031226  0.2499995411569156
  0.0478311884902552  0.0957849569312799  0.2499992077786440
  0.0457892095338750  0.2371137713618048  0.2500017696819807
  0.0457507105500512  0.3799463323315646  0.2499993617125283
  0.0477391619906135  0.5233877826995089  0.2499998612754286
  0.0490561873442109  0.6668156045669739  0.2499993648198660
  0.0497501987423875  0.8105248613342886  0.2499983682987570
  0.0491091512154971  0.9535454476434864  0.2499980708676532
  0.1910519651061616  0.0965100268453382  0.2499989411639150
  0.1907804071244535  0.2395574239296900  0.2500010474414399
  0.1884911791587471  0.3798240793368169  0.2500010258582321
  0.1907127332537994  0.5224448261110990  0.2499988187210468
  0.1910376260060067  0.6657696609192297  0.2500006293753257
  0.1914172417166082  0.8095398066976615  0.2500001593283603
  0.1914390774337814  0.9530525520839990  0.2500007772629556
  0.3329935079614870  0.0960773994096850  0.2499980097347336
  0.3367575322718074  0.2410695242661132  0.2499982131347205
  0.3367874025174675  0.6669851557450350  0.2499997024523567
  0.3329476911277669  0.8081680853453830  0.2500000512766194
  0.3334017315356504  0.9523110175406441  0.2500008069246611
  0.4755788401799543  0.0955664599482786  0.2499972498173105
  0.4715248033970053  0.2390634738815530  0.2500001977334315
  0.4715204424152888  0.8040477406633297  0.2499993352272643
  0.4755719636524215  0.9515556853723052  0.2499965954793567
  0.6176741786599623  0.0946022687290965  0.2499960390308280
  0.6170654815145874  0.2394003842744997  0.2499965543703943
  0.6171110255110188  0.9492722987344007  0.2499990578236372
  0.7599914978061220  0.0934053716362257  0.2499995092865286
  0.7599473384217875  0.2380166044684874  0.2499991873225014
  0.7604261845485578  0.3830045143083793  0.2499961231426188
  0.7627112917754860  0.5311506389951437  0.2500004025171703
  0.7664189221829812  0.6690385672158732  0.2499987715489271
  0.7627278765553913  0.8031765892302096  0.2499999164158360
  0.7605041877295684  0.9490482190885331  0.2500007846292231
  0.9032021664083042  0.0937421000751861  0.2499996959084772
  0.9026936460536757  0.2370324949459960  0.2500001742848149
  0.9030934081660046  0.3807759162546650  0.2499998110734976
  0.9048946698765573  0.5245773773006988  0.2500034375593884
  0.9078699792806177  0.6683499958249053  0.2499981379287728
  0.9078853390322040  0.8110477477318114  0.2499987501084480
  0.9049994398494619  0.9518058542320973  0.2499995932933449
  0.6194653672224792  0.3822740965274219  0.2500117997710262
  0.6195127507399182  0.8089085936489993  0.2499998345081795
  0.5751112067960323  0.7199563105904251  0.2499945862702971
  0.5751044840478260  0.4268865891804393  0.2500469124709033
  0.4260016306020671  0.2840458159494074  0.2499990034238742
  0.4260518053517223  0.7134778299321380  0.2499994123694452
  0.7196603057640091  0.5778643613782609  0.2499989468484740
  0.7196504149307885  0.7134177107853283  0.2499993507729373
  0.3311909397116423  0.3825801007116569  0.2499989723450734
  0.3311385871508675  0.5198116386360673  0.2499989403315970
 
  0.00000000E+00  0.00000000E+00  0.00000000E+00
  0.00000000E+00  0.00000000E+00  0.00000000E+00
  0.00000000E+00  0.00000000E+00  0.00000000E+00
  0.00000000E+00  0.00000000E+00  0.00000000E+00
  0.00000000E+00  0.00000000E+00  0.00000000E+00
  0.00000000E+00  0.00000000E+00  0.00000000E+00
  0.00000000E+00  0.00000000E+00  0.00000000E+00
  0.00000000E+00  0.00000000E+00  0.00000000E+00
  0.00000000E+00  0.00000000E+00  0.00000000E+00
  0.00000000E+00  0.00000000E+00  0.00000000E+00
  0.00000000E+00  0.00000000E+00  0.00000000E+00
  0.00000000E+00  0.00000000E+00  0.00000000E+00
  0.00000000E+00  0.00000000E+00  0.00000000E+00
  0.00000000E+00  0.00000000E+00  0.00000000E+00
  0.00000000E+00  0.00000000E+00  0.00000000E+00
  0.00000000E+00  0.00000000E+00  0.00000000E+00
  0.00000000E+00  0.00000000E+00  0.00000000E+00
  0.00000000E+00  0.00000000E+00  0.00000000E+00
  0.00000000E+00  0.00000000E+00  0.00000000E+00
  0.00000000E+00  0.00000000E+00  0.00000000E+00
  0.00000000E+00  0.00000000E+00  0.00000000E+00
  0.00000000E+00  0.00000000E+00  0.00000000E+00
  0.00000000E+00  0.00000000E+00  0.00000000E+00
  0.00000000E+00  0.00000000E+00  0.00000000E+00
  0.00000000E+00  0.00000000E+00  0.00000000E+00
  0.00000000E+00  0.00000000E+00  0.00000000E+00
  0.00000000E+00  0.00000000E+00  0.00000000E+00
  0.00000000E+00  0.00000000E+00  0.00000000E+00
  0.00000000E+00  0.00000000E+00  0.00000000E+00
  0.00000000E+00  0.00000000E+00  0.00000000E+00
  0.00000000E+00  0.00000000E+00  0.00000000E+00
  0.00000000E+00  0.00000000E+00  0.00000000E+00
  0.00000000E+00  0.00000000E+00  0.00000000E+00
  0.00000000E+00  0.00000000E+00  0.00000000E+00
  0.00000000E+00  0.00000000E+00  0.00000000E+00
  0.00000000E+00  0.00000000E+00  0.00000000E+00
  0.00000000E+00  0.00000000E+00  0.00000000E+00
  0.00000000E+00  0.00000000E+00  0.00000000E+00
  0.00000000E+00  0.00000000E+00  0.00000000E+00
  0.00000000E+00  0.00000000E+00  0.00000000E+00
  0.00000000E+00  0.00000000E+00  0.00000000E+00
  0.00000000E+00  0.00000000E+00  0.00000000E+00
  0.00000000E+00  0.00000000E+00  0.00000000E+00
  0.00000000E+00  0.00000000E+00  0.00000000E+00
  0.00000000E+00  0.00000000E+00  0.00000000E+00
  0.00000000E+00  0.00000000E+00  0.00000000E+00
  0.00000000E+00  0.00000000E+00  0.00000000E+00
  0.00000000E+00  0.00000000E+00  0.00000000E+00
  0.00000000E+00  0.00000000E+00  0.00000000E+00
  0.00000000E+00  0.00000000E+00  0.00000000E+00
  0.00000000E+00  0.00000000E+00  0.00000000E+00
  0.00000000E+00  0.00000000E+00  0.00000000E+00
  0.00000000E+00  0.00000000E+00  0.00000000E+00
  0.00000000E+00  0.00000000E+00  0.00000000E+00
  0.00000000E+00  0.00000000E+00  0.00000000E+00
  0.00000000E+00  0.00000000E+00  0.00000000E+00
  0.00000000E+00  0.00000000E+00  0.00000000E+00
  0.00000000E+00  0.00000000E+00  0.00000000E+00
  0.00000000E+00  0.00000000E+00  0.00000000E+00
  0.00000000E+00  0.00000000E+00  0.00000000E+00
  0.00000000E+00  0.00000000E+00  0.00000000E+00
  0.00000000E+00  0.00000000E+00  0.00000000E+00
  0.00000000E+00  0.00000000E+00  0.00000000E+00
  0.00000000E+00  0.00000000E+00  0.00000000E+00
  0.00000000E+00  0.00000000E+00  0.00000000E+00
  0.00000000E+00  0.00000000E+00  0.00000000E+00
  0.00000000E+00  0.00000000E+00  0.00000000E+00
  0.00000000E+00  0.00000000E+00  0.00000000E+00
  0.00000000E+00  0.00000000E+00  0.00000000E+00
  0.00000000E+00  0.00000000E+00  0.00000000E+00
  0.00000000E+00  0.00000000E+00  0.00000000E+00
  0.00000000E+00  0.00000000E+00  0.00000000E+00
  0.00000000E+00  0.00000000E+00  0.00000000E+00
  0.00000000E+00  0.00000000E+00  0.00000000E+00
  0.00000000E+00  0.00000000E+00  0.00000000E+00
  0.00000000E+00  0.00000000E+00  0.00000000E+00
  0.00000000E+00  0.00000000E+00  0.00000000E+00
  0.00000000E+00  0.00000000E+00  0.00000000E+00
  0.00000000E+00  0.00000000E+00  0.00000000E+00
  0.00000000E+00  0.00000000E+00  0.00000000E+00
  0.00000000E+00  0.00000000E+00  0.00000000E+00
  0.00000000E+00  0.00000000E+00  0.00000000E+00
  0.00000000E+00  0.00000000E+00  0.00000000E+00
  0.00000000E+00  0.00000000E+00  0.00000000E+00
  0.00000000E+00  0.00000000E+00  0.00000000E+00
  0.00000000E+00  0.00000000E+00  0.00000000E+00
  0.00000000E+00  0.00000000E+00  0.00000000E+00
  0.00000000E+00  0.00000000E+00  0.00000000E+00
  0.00000000E+00  0.00000000E+00  0.00000000E+00
  0.00000000E+00  0.00000000E+00  0.00000000E+00
