C4                                      
    1.000000000000000     
    17.2710380553999983    0.0000000000000000    0.0000000000000000
    -8.6355190276999991   14.9571577057000002    0.0000000000000000
     0.0000000000000000    0.0000000000000000   15.0000000000000000
   C    F    N 
    82     2     6
Direct
  0.0000967371873334 -0.0000795190931130  0.2499992766295175
 -0.0011066362880795  0.1421591161365112  0.2499983924293075
 -0.0019956608026283  0.2847785788549324  0.2499994033024234
 -0.0014190848781919  0.4281830362239861  0.2500030337607324
  0.0002112914619639  0.5716495019687345  0.2500023404638307
  0.0025125832659609  0.7154268139497804  0.2499987852417127
  0.0020979689465347  0.8583035850209646  0.2499976782053731
  0.1439602270346401  0.0006638517513436  0.2500007302406287
  0.1429392804660142  0.1433319241858932  0.2499997394654738
  0.1407518681416355  0.2840874234963389  0.2499989885789828
  0.1404654402914990  0.4263889818180515  0.2500021711674302
  0.1430609038251454  0.5700479430166161  0.2500046668304013
  0.1446965901132162  0.7137186258720298  0.2500009326453578
  0.1447522814399897  0.8573034230355814  0.2500003790943329
  0.2862555795557378 -0.0005121971105166  0.2500011609024392
  0.2858207037596154  0.1437502802810443  0.2500005635306238
  0.2868238014128576  0.2914240095566133  0.2499995158018415
  0.2829180732738814  0.4257375899639123  0.2500007885192869
  0.2855642032033474  0.5634640332244175  0.2500007667393445
  0.2874097084210925  0.7115219936584878  0.2500053856533211
  0.2873255405100316  0.8559978248756616  0.2500003862357578
  0.4291432553469730 -0.0004008084222139  0.2499982108772602
  0.4275581153417296  0.1429198262611511  0.2500007444339924
  0.4303119940982861  0.8553855929337880  0.2500030405025188
  0.5716407285415129 -0.0000005947166547  0.2499983230150704
  0.5707524627378977  0.1437932948435632  0.2499969252249432
  0.5688324610617257  0.2877491355750892  0.2499990910496549
  0.5761388257504703  0.8567055981364214  0.2500000412842415
  0.7145879267464004 -0.0001664979016759  0.2499999634229529
  0.7135429525673856  0.1435229420604574  0.2499972346815251
  0.7125082358450967  0.2878142616942945  0.2500004337617912
  0.7129549865435190  0.4328896139283178  0.2500027021147592
  0.7110970121496558  0.8549692392064142  0.2500013092257515
  0.8566819432587948 -0.0005721774822112  0.2499998766614228
  0.8561098503335581  0.1427035533629351  0.2499985962465536
  0.8553838852042429  0.2859812799948649  0.2499981777766778
  0.8558387356995799  0.4296913885824770  0.2500027571111680
  0.8582321076984745  0.5741304720744117  0.2500008721613340
  0.8603117070330419  0.7167137584682869  0.2500008281477530
  0.8572592067695287  0.8566305669082717  0.2499979160816788
  0.0475138023247518  0.0952880063587444  0.2499987887172526
  0.0454647166463514  0.2368384340133927  0.2499984595839624
  0.0452492299970921  0.3796971726935082  0.2500020639505313
  0.0474895357501048  0.5234904386729224  0.2500043265661762
  0.0492195667068658  0.6669584368157266  0.2500004262034453
  0.0496497532184560  0.8103851513919021  0.2499991790379158
  0.0487274529101873  0.9530154986664612  0.2499996318634041
  0.1907253580839101  0.0956548511302406  0.2500014092502190
  0.1901744687227041  0.2385450024777812  0.2499993819621801
  0.1873521421300047  0.3784014574599703  0.2500002033096487
  0.1893485355203101  0.5209848199747893  0.2500031187995125
  0.1917903942542400  0.6654370415788464  0.2500049285946225
  0.1922290861193677  0.8091800363918542  0.2500000917591853
  0.1914954530210786  0.9524316564441955  0.2500017590444858
  0.3329370347766005  0.0952376121348652  0.2499997820073885
  0.3361543592305234  0.2400220109147564  0.2499986081657541
  0.3346486459714705  0.6623951888478065  0.2499998555374996
  0.3349423962831917  0.8073752660550796  0.2500030967114726
  0.3339391244156150  0.9515407555734954  0.2500000378674607
  0.4758119609459383  0.0953160153196227  0.2499993495244614
  0.4712115505955374  0.2386557921030667  0.2499973943450980
  0.4786093765110120  0.8076888123931972  0.2499994115911094
  0.4766937951818091  0.9515244821666322  0.2499970637143467
  0.6182967211951360  0.0956653212553344  0.2499976028177258
  0.6170532584294174  0.2399113284410217  0.2499971223860696
  0.6199336399951624  0.9524011418895927  0.2499998486848123
  0.7612967982479621  0.0955907559234157  0.2499986498879531
  0.7601957455655370  0.2391313734719845  0.2499977525852412
  0.7601817153656355  0.3836769023846459  0.2500008824826335
  0.7620262709318044  0.5317197254122894  0.2500011804058879
  0.7647221953218349  0.6694585632374683  0.2499993411168223
  0.7606323869918605  0.8036899681894243  0.2499997390013713
  0.7615447199164684  0.9512017127644939  0.2500000289297296
  0.9036149898386255  0.0944185215765840  0.2499994301744576
  0.9029395084204515  0.2378599556708719  0.2499981077737359
  0.9030334911307073  0.3814801491539812  0.2500011738454145
  0.9045910263915831  0.5251169799185806  0.2500024522210068
  0.9072375950722312  0.6687078234689315  0.2499994328748554
  0.9067708990593467  0.8110787084857438  0.2499973970058955
  0.9046016116184099  0.9518577387143144  0.2499995499326736
  0.4286027810579145  0.7129629208431243  0.2499939371218789
  0.6189910737891305  0.3824383621048457  0.2500054608401820
  0.4732656175240624  0.6687189005799993  0.2499691324737056
  0.5743597213198711  0.4267483838181689  0.2500213786299090
  0.4254216688932438  0.2833122425349744  0.2499967847994942
  0.7186316341460232  0.5782383816166299  0.2499998732923681
  0.7173466552573373  0.7140164479086015  0.2500000521935875
  0.3302608083184613  0.3811278805415291  0.2500003204068412
  0.3289885394962686  0.5169706009970350  0.2500011445931820
  0.6218589658936633  0.8118962893139690  0.2500017261962649
 
  0.00000000E+00  0.00000000E+00  0.00000000E+00
  0.00000000E+00  0.00000000E+00  0.00000000E+00
  0.00000000E+00  0.00000000E+00  0.00000000E+00
  0.00000000E+00  0.00000000E+00  0.00000000E+00
  0.00000000E+00  0.00000000E+00  0.00000000E+00
  0.00000000E+00  0.00000000E+00  0.00000000E+00
  0.00000000E+00  0.00000000E+00  0.00000000E+00
  0.00000000E+00  0.00000000E+00  0.00000000E+00
  0.00000000E+00  0.00000000E+00  0.00000000E+00
  0.00000000E+00  0.00000000E+00  0.00000000E+00
  0.00000000E+00  0.00000000E+00  0.00000000E+00
  0.00000000E+00  0.00000000E+00  0.00000000E+00
  0.00000000E+00  0.00000000E+00  0.00000000E+00
  0.00000000E+00  0.00000000E+00  0.00000000E+00
  0.00000000E+00  0.00000000E+00  0.00000000E+00
  0.00000000E+00  0.00000000E+00  0.00000000E+00
  0.00000000E+00  0.00000000E+00  0.00000000E+00
  0.00000000E+00  0.00000000E+00  0.00000000E+00
  0.00000000E+00  0.00000000E+00  0.00000000E+00
  0.00000000E+00  0.00000000E+00  0.00000000E+00
  0.00000000E+00  0.00000000E+00  0.00000000E+00
  0.00000000E+00  0.00000000E+00  0.00000000E+00
  0.00000000E+00  0.00000000E+00  0.00000000E+00
  0.00000000E+00  0.00000000E+00  0.00000000E+00
  0.00000000E+00  0.00000000E+00  0.00000000E+00
  0.00000000E+00  0.00000000E+00  0.00000000E+00
  0.00000000E+00  0.00000000E+00  0.00000000E+00
  0.00000000E+00  0.00000000E+00  0.00000000E+00
  0.00000000E+00  0.00000000E+00  0.00000000E+00
  0.00000000E+00  0.00000000E+00  0.00000000E+00
  0.00000000E+00  0.00000000E+00  0.00000000E+00
  0.00000000E+00  0.00000000E+00  0.00000000E+00
  0.00000000E+00  0.00000000E+00  0.00000000E+00
  0.00000000E+00  0.00000000E+00  0.00000000E+00
  0.00000000E+00  0.00000000E+00  0.00000000E+00
  0.00000000E+00  0.00000000E+00  0.00000000E+00
  0.00000000E+00  0.00000000E+00  0.00000000E+00
  0.00000000E+00  0.00000000E+00  0.00000000E+00
  0.00000000E+00  0.00000000E+00  0.00000000E+00
  0.00000000E+00  0.00000000E+00  0.00000000E+00
  0.00000000E+00  0.00000000E+00  0.00000000E+00
  0.00000000E+00  0.00000000E+00  0.00000000E+00
  0.00000000E+00  0.00000000E+00  0.00000000E+00
  0.00000000E+00  0.00000000E+00  0.00000000E+00
  0.00000000E+00  0.00000000E+00  0.00000000E+00
  0.00000000E+00  0.00000000E+00  0.00000000E+00
  0.00000000E+00  0.00000000E+00  0.00000000E+00
  0.00000000E+00  0.00000000E+00  0.00000000E+00
  0.00000000E+00  0.00000000E+00  0.00000000E+00
  0.00000000E+00  0.00000000E+00  0.00000000E+00
  0.00000000E+00  0.00000000E+00  0.00000000E+00
  0.00000000E+00  0.00000000E+00  0.00000000E+00
  0.00000000E+00  0.00000000E+00  0.00000000E+00
  0.00000000E+00  0.00000000E+00  0.00000000E+00
  0.00000000E+00  0.00000000E+00  0.00000000E+00
  0.00000000E+00  0.00000000E+00  0.00000000E+00
  0.00000000E+00  0.00000000E+00  0.00000000E+00
  0.00000000E+00  0.00000000E+00  0.00000000E+00
  0.00000000E+00  0.00000000E+00  0.00000000E+00
  0.00000000E+00  0.00000000E+00  0.00000000E+00
  0.00000000E+00  0.00000000E+00  0.00000000E+00
  0.00000000E+00  0.00000000E+00  0.00000000E+00
  0.00000000E+00  0.00000000E+00  0.00000000E+00
  0.00000000E+00  0.00000000E+00  0.00000000E+00
  0.00000000E+00  0.00000000E+00  0.00000000E+00
  0.00000000E+00  0.00000000E+00  0.00000000E+00
  0.00000000E+00  0.00000000E+00  0.00000000E+00
  0.00000000E+00  0.00000000E+00  0.00000000E+00
  0.00000000E+00  0.00000000E+00  0.00000000E+00
  0.00000000E+00  0.00000000E+00  0.00000000E+00
  0.00000000E+00  0.00000000E+00  0.00000000E+00
  0.00000000E+00  0.00000000E+00  0.00000000E+00
  0.00000000E+00  0.00000000E+00  0.00000000E+00
  0.00000000E+00  0.00000000E+00  0.00000000E+00
  0.00000000E+00  0.00000000E+00  0.00000000E+00
  0.00000000E+00  0.00000000E+00  0.00000000E+00
  0.00000000E+00  0.00000000E+00  0.00000000E+00
  0.00000000E+00  0.00000000E+00  0.00000000E+00
  0.00000000E+00  0.00000000E+00  0.00000000E+00
  0.00000000E+00  0.00000000E+00  0.00000000E+00
  0.00000000E+00  0.00000000E+00  0.00000000E+00
  0.00000000E+00  0.00000000E+00  0.00000000E+00
  0.00000000E+00  0.00000000E+00  0.00000000E+00
  0.00000000E+00  0.00000000E+00  0.00000000E+00
  0.00000000E+00  0.00000000E+00  0.00000000E+00
  0.00000000E+00  0.00000000E+00  0.00000000E+00
  0.00000000E+00  0.00000000E+00  0.00000000E+00
  0.00000000E+00  0.00000000E+00  0.00000000E+00
  0.00000000E+00  0.00000000E+00  0.00000000E+00
  0.00000000E+00  0.00000000E+00  0.00000000E+00
