C    F    N    H    O                   
    1.000000000000000     
    17.2710380553999983    0.0000000000000000    0.0000000000000000
    -8.6355190276999991   14.9571577057000002    0.0000000000000000
     0.0000000000000000    0.0000000000000000   15.0000000000000000
   C    F    N    H    O 
    82     2     6     2     1
Selective dynamics
Direct
  0.9989470530626253  0.0016495624415864  0.5036329242243345   T   T   T
  0.9991855496164725  0.1446817044100938  0.5036211393084493   T   T   T
  1.0000340896159059  0.2883377487738800  0.5035324710399329   T   T   T
  0.0005493718354404  0.4314269544483194  0.5039425215607579   T   T   T
  0.0009977031534676  0.5742543423790754  0.5042342631212519   T   T   T
  0.0013405236206459  0.7171790492877366  0.5040367464903571   T   T   T
  0.9998607185550680  0.8596948042576648  0.5037369892172030   T   T   T
  0.1431988695528139  0.0032499065058084  0.5028545265580046   T   T   T
  0.1428104943831805  0.1455193732368975  0.5033286222185824   T   T   T
  0.1422642420084723  0.2873243676434187  0.5034917201052292   T   T   T
  0.1439344056516361  0.4314982947431589  0.5038739683637596   T   T   T
  0.1449021791633482  0.5742375496086851  0.5040442676612042   T   T   T
  0.1443643472948242  0.7171790264218206  0.5037198418078520   T   T   T
  0.1435299455897643  0.8603066087956031  0.5030370874788194   T   T   T
  0.2862936730496331  0.0035681729268196  0.5032664937723422   T   T   T
  0.2867138729097509  0.1470376845003703  0.5034253476130365   T   T   T
  0.2875364190173480  0.2923316933506431  0.5044306758490035   T   T   T
  0.2850986322152089  0.4264806440027815  0.5051170319205700   T   T   T
  0.2902209564741532  0.5744491660019297  0.5056918482476679   T   T   T
  0.2877101750139160  0.7178455961280330  0.5047464484913012   T   T   T
  0.2865487967272283  0.8607164301022292  0.5038277283137221   T   T   T
  0.4292825237072534  0.0040027841901654  0.5042578524793335   T   T   T
  0.4293110265322466  0.1478492920213383  0.5044697442155078   T   T   T
  0.4295354094966815  0.8603512760186698  0.5050138489550786   T   T   T
  0.5714951671259011  0.0034040629593622  0.5047518042582567   T   T   T
  0.5715266398338280  0.1469585699777346  0.5049776333454692   T   T   T
  0.5737539960014780  0.2938476960274031  0.5063301359355048   T   T   T
  0.5735282347104858  0.8589694082605294  0.5064091734102565   T   T   T
  0.7136723167174938  0.0024981458504004  0.5051603918332037   T   T   T
  0.7142513282455397  0.1461787059774172  0.5044271087737611   T   T   T
  0.7140098614176986  0.2893832583063410  0.5054540817070967   T   T   T
  0.7102802108221642  0.4294784318963301  0.5078492032160398   T   T   T
  0.7087002313016006  0.8579285446063488  0.5085414915569256   T   T   T
  0.8558109604255171  0.0014799987235404  0.5050861529409841   T   T   T
  0.8566804137334165  0.1453312646271151  0.5040611820094620   T   T   T
  0.8569953560896714  0.2885816309015932  0.5043612246751367   T   T   T
  0.8571334218265078  0.4315724494613718  0.5053376140326730   T   T   T
  0.8574402562073353  0.5740994659164103  0.5064001543075355   T   T   T
  0.8582924265863192  0.7164745442028280  0.5073057015378781   T   T   T
  0.8546291120986502  0.8575760931221303  0.5064104670377813   T   T   T
  0.0471375800322853  0.0972845809196442  0.5034146932053547   T   T   T
  0.0467879280965942  0.2398580003797696  0.5033299963504611   T   T   T
  0.0481641546776896  0.3838684873065584  0.5036319579512072   T   T   T
  0.0491078176210401  0.5267820717936849  0.5039381946148189   T   T   T
  0.0489093913459279  0.6696158550228209  0.5038538236683627   T   T   T
  0.0480616057163973  0.8123925376246991  0.5034173952316739   T   T   T
  0.0474912113410665  0.9548581801587804  0.5032152105699845   T   T   T
  0.1909671863264733  0.0984449131025282  0.5030406210957097   T   T   T
  0.1908880281195029  0.2408446852953526  0.5037242784343549   T   T   T
  0.1897554640896479  0.3822253121331008  0.5039585309737588   T   T   T
  0.1933218837113065  0.5270179649896195  0.5043069089807749   T   T   T
  0.1922533413206403  0.6697875402464044  0.5041150562506961   T   T   T
  0.1914524658458553  0.8127616211267041  0.5034391146317242   T   T   T
  0.1911162354492388  0.9556676506307858  0.5028916633492895   T   T   T
  0.3341134678822426  0.0993755038249770  0.5035980952854309   T   T   T
  0.3379307767512713  0.2431219829659558  0.5045852853621947   T   T   T
  0.3393693311171403  0.6733729247133409  0.5057215628936285   T   T   T
  0.3344624991659619  0.8129433164968635  0.5046203505240626   T   T   T
  0.3338773446873057  0.9559944662906943  0.5037512540683245   T   T   T
  0.4766105040439757  0.0994667342630575  0.5045629636132530   T   T   T
  0.4742577926077520  0.2440557642004160  0.5056073902082956   T   T   T
  0.4746026878883914  0.8095437208775167  0.5058516502626184   T   T   T
  0.4766425091614360  0.9559868572410727  0.5046817854008849   T   T   T
  0.6188361991935960  0.0987873890369049  0.5046196995533222   T   T   T
  0.6188037163440894  0.2426875404149481  0.5056134139619533   T   T   T
  0.6185826579392913  0.9548511114151655  0.5053489712852922   T   T   T
  0.7615534962312175  0.0981992536311876  0.5043453124820627   T   T   T
  0.7617884129243995  0.2413269971124246  0.5047082406547042   T   T   T
  0.7613307159225163  0.3844511365025173  0.5061752750208033   T   T   T
  0.7608549843395127  0.5291293032998265  0.5095603640189530   T   T   T
  0.7630360226572094  0.6651582868333953  0.5127815914765759   T   T   T
  0.7577625217876629  0.8080684016259826  0.5103870410309890   T   T   T
  0.7603404306298648  0.9540775204559478  0.5061547844243072   T   T   T
  0.9037215420155053  0.0968061373967979  0.5041397044020653   T   T   T
  0.9045703029455594  0.2407983453015048  0.5038800934087689   T   T   T
  0.9048519640229318  0.3840872589589672  0.5045308902433251   T   T   T
  0.9053844066064317  0.5268117136655220  0.5050993739999500   T   T   T
  0.9058605207333323  0.6691647075938032  0.5056793405379079   T   T   T
  0.9041312829031879  0.8115468254082978  0.5056180410182293   T   T   T
  0.9031065649202397  0.9532492869340607  0.5047395513467154   T   T   T
  0.7156629452113228  0.7140811598927108  0.5166009459171047   T   T   T
  0.3322830632426463  0.5225543099755704  0.5070451815594094   T   T   T
  0.6278197480002740  0.6658165748600208  0.5271510422127045   T   T   T
  0.4209235155522315  0.5621859693599520  0.5107978702426687   T   T   T
  0.4279125959187911  0.2880311930876727  0.5062037456810422   T   T   T
  0.4292642757096168  0.7194024738162235  0.5062799393728892   T   T   T
  0.7170951605895345  0.5744405480595814  0.5145510014336965   T   T   T
  0.3314542768039860  0.3818374637444451  0.5050148326055925   T   T   T
  0.6201347615353611  0.3843126835246356  0.5075211799920780   T   T   T
  0.6187748242756111  0.8141024331025016  0.5082282052480691   T   T   T
  0.4629489201759768  0.4484428299760702  0.4789104352458672   T   T   T
  0.5557514386118485  0.4559635714116698  0.4833484043231171   T   T   T
  0.5260007668854167  0.4889507176150080  0.4651120309999968   T   T   F
 
  0.00000000E+00  0.00000000E+00  0.00000000E+00
  0.00000000E+00  0.00000000E+00  0.00000000E+00
  0.00000000E+00  0.00000000E+00  0.00000000E+00
  0.00000000E+00  0.00000000E+00  0.00000000E+00
  0.00000000E+00  0.00000000E+00  0.00000000E+00
  0.00000000E+00  0.00000000E+00  0.00000000E+00
  0.00000000E+00  0.00000000E+00  0.00000000E+00
  0.00000000E+00  0.00000000E+00  0.00000000E+00
  0.00000000E+00  0.00000000E+00  0.00000000E+00
  0.00000000E+00  0.00000000E+00  0.00000000E+00
  0.00000000E+00  0.00000000E+00  0.00000000E+00
  0.00000000E+00  0.00000000E+00  0.00000000E+00
  0.00000000E+00  0.00000000E+00  0.00000000E+00
  0.00000000E+00  0.00000000E+00  0.00000000E+00
  0.00000000E+00  0.00000000E+00  0.00000000E+00
  0.00000000E+00  0.00000000E+00  0.00000000E+00
  0.00000000E+00  0.00000000E+00  0.00000000E+00
  0.00000000E+00  0.00000000E+00  0.00000000E+00
  0.00000000E+00  0.00000000E+00  0.00000000E+00
  0.00000000E+00  0.00000000E+00  0.00000000E+00
  0.00000000E+00  0.00000000E+00  0.00000000E+00
  0.00000000E+00  0.00000000E+00  0.00000000E+00
  0.00000000E+00  0.00000000E+00  0.00000000E+00
  0.00000000E+00  0.00000000E+00  0.00000000E+00
  0.00000000E+00  0.00000000E+00  0.00000000E+00
  0.00000000E+00  0.00000000E+00  0.00000000E+00
  0.00000000E+00  0.00000000E+00  0.00000000E+00
  0.00000000E+00  0.00000000E+00  0.00000000E+00
  0.00000000E+00  0.00000000E+00  0.00000000E+00
  0.00000000E+00  0.00000000E+00  0.00000000E+00
  0.00000000E+00  0.00000000E+00  0.00000000E+00
  0.00000000E+00  0.00000000E+00  0.00000000E+00
  0.00000000E+00  0.00000000E+00  0.00000000E+00
  0.00000000E+00  0.00000000E+00  0.00000000E+00
  0.00000000E+00  0.00000000E+00  0.00000000E+00
  0.00000000E+00  0.00000000E+00  0.00000000E+00
  0.00000000E+00  0.00000000E+00  0.00000000E+00
  0.00000000E+00  0.00000000E+00  0.00000000E+00
  0.00000000E+00  0.00000000E+00  0.00000000E+00
  0.00000000E+00  0.00000000E+00  0.00000000E+00
  0.00000000E+00  0.00000000E+00  0.00000000E+00
  0.00000000E+00  0.00000000E+00  0.00000000E+00
  0.00000000E+00  0.00000000E+00  0.00000000E+00
  0.00000000E+00  0.00000000E+00  0.00000000E+00
  0.00000000E+00  0.00000000E+00  0.00000000E+00
  0.00000000E+00  0.00000000E+00  0.00000000E+00
  0.00000000E+00  0.00000000E+00  0.00000000E+00
  0.00000000E+00  0.00000000E+00  0.00000000E+00
  0.00000000E+00  0.00000000E+00  0.00000000E+00
  0.00000000E+00  0.00000000E+00  0.00000000E+00
  0.00000000E+00  0.00000000E+00  0.00000000E+00
  0.00000000E+00  0.00000000E+00  0.00000000E+00
  0.00000000E+00  0.00000000E+00  0.00000000E+00
  0.00000000E+00  0.00000000E+00  0.00000000E+00
  0.00000000E+00  0.00000000E+00  0.00000000E+00
  0.00000000E+00  0.00000000E+00  0.00000000E+00
  0.00000000E+00  0.00000000E+00  0.00000000E+00
  0.00000000E+00  0.00000000E+00  0.00000000E+00
  0.00000000E+00  0.00000000E+00  0.00000000E+00
  0.00000000E+00  0.00000000E+00  0.00000000E+00
  0.00000000E+00  0.00000000E+00  0.00000000E+00
  0.00000000E+00  0.00000000E+00  0.00000000E+00
  0.00000000E+00  0.00000000E+00  0.00000000E+00
  0.00000000E+00  0.00000000E+00  0.00000000E+00
  0.00000000E+00  0.00000000E+00  0.00000000E+00
  0.00000000E+00  0.00000000E+00  0.00000000E+00
  0.00000000E+00  0.00000000E+00  0.00000000E+00
  0.00000000E+00  0.00000000E+00  0.00000000E+00
  0.00000000E+00  0.00000000E+00  0.00000000E+00
  0.00000000E+00  0.00000000E+00  0.00000000E+00
  0.00000000E+00  0.00000000E+00  0.00000000E+00
  0.00000000E+00  0.00000000E+00  0.00000000E+00
  0.00000000E+00  0.00000000E+00  0.00000000E+00
  0.00000000E+00  0.00000000E+00  0.00000000E+00
  0.00000000E+00  0.00000000E+00  0.00000000E+00
  0.00000000E+00  0.00000000E+00  0.00000000E+00
  0.00000000E+00  0.00000000E+00  0.00000000E+00
  0.00000000E+00  0.00000000E+00  0.00000000E+00
  0.00000000E+00  0.00000000E+00  0.00000000E+00
  0.00000000E+00  0.00000000E+00  0.00000000E+00
  0.00000000E+00  0.00000000E+00  0.00000000E+00
  0.00000000E+00  0.00000000E+00  0.00000000E+00
  0.00000000E+00  0.00000000E+00  0.00000000E+00
  0.00000000E+00  0.00000000E+00  0.00000000E+00
  0.00000000E+00  0.00000000E+00  0.00000000E+00
  0.00000000E+00  0.00000000E+00  0.00000000E+00
  0.00000000E+00  0.00000000E+00  0.00000000E+00
  0.00000000E+00  0.00000000E+00  0.00000000E+00
  0.00000000E+00  0.00000000E+00  0.00000000E+00
  0.00000000E+00  0.00000000E+00  0.00000000E+00
  0.00000000E+00  0.00000000E+00  0.00000000E+00
  0.00000000E+00  0.00000000E+00  0.00000000E+00
  0.00000000E+00  0.00000000E+00  0.00000000E+00
