C    F    N    H    O                   
    1.000000000000000     
    17.2710380553999983    0.0000000000000000    0.0000000000000000
    -8.6355190276999991   14.9571577057000002    0.0000000000000000
     0.0000000000000000    0.0000000000000000   15.0000000000000000
   C    F    N    H    O 
    82     2     6     2     1
Selective dynamics
Direct
  0.9988823442910069  0.0015178766124864  0.5025892286388198   T   T   T
  0.9990872152703213  0.1445240337541081  0.5026282944793192   T   T   T
  0.9999260455118597  0.2881880977759843  0.5026792221719927   T   T   T
  0.0004682834319881  0.4312881464693008  0.5029594927630785   T   T   T
  0.0009379955854227  0.5740919426332303  0.5029417854303564   T   T   T
  0.0013145481741218  0.7170280927017061  0.5027061725746172   T   T   T
  0.9998144900546457  0.8595675814514021  0.5026459580040905   T   T   T
  0.1431314030212805  0.0030883317105175  0.5022160031692180   T   T   T
  0.1427314669212253  0.1453576211622106  0.5029101979111652   T   T   T
  0.1421573841832836  0.2871603268980065  0.5030074452982242   T   T   T
  0.1438389319736506  0.4313560765803002  0.5032347032616946   T   T   T
  0.1448277635501626  0.5740811893523173  0.5030946149930767   T   T   T
  0.1442927532678043  0.7169902036555484  0.5025353092545127   T   T   T
  0.1434712848219885  0.8601311454749256  0.5020543904015397   T   T   T
  0.2862170887293288  0.0033965706201652  0.5027461258125205   T   T   T
  0.2866301586490565  0.1468843173301954  0.5030363003365301   T   T   T
  0.2874540952523894  0.2922058937778581  0.5037424647066335   T   T   T
  0.2849871865945022  0.4263176747019095  0.5045120580203867   T   T   T
  0.2901255628562202  0.5742837721513587  0.5051133719607149   T   T   T
  0.2876255309763357  0.7176449354657171  0.5038025603164994   T   T   T
  0.2864719342708657  0.8605126407911402  0.5029290537458658   T   T   T
  0.4291845900087696  0.0038200521366564  0.5036352022364406   T   T   T
  0.4292096240221027  0.1476775787184844  0.5038944507264737   T   T   T
  0.4294523126871050  0.8601683018727346  0.5040728972697258   T   T   T
  0.5714103516149333  0.0032504706449353  0.5038656875919638   T   T   T
  0.5714155331784925  0.1467881439105146  0.5041578070122783   T   T   T
  0.5736394577446908  0.2936652370176301  0.5051739660650280   T   T   T
  0.5734361845037240  0.8588050988439179  0.5049870995147987   T   T   T
  0.7135730885137251  0.0023314398780316  0.5037832456599272   T   T   T
  0.7141555453942771  0.1460430870167969  0.5033855828325009   T   T   T
  0.7138931450383298  0.2892388110570628  0.5044526086317714   T   T   T
  0.7101441885494384  0.4293300440903782  0.5065155632443185   T   T   T
  0.7086140203333621  0.8577636771453002  0.5068200227691485   T   T   T
  0.8557285258685668  0.0013475984376097  0.5036233223642284   T   T   T
  0.8565809128190128  0.1451918989757237  0.5028542274902742   T   T   T
  0.8568737024785117  0.2884625184832511  0.5032201209566459   T   T   T
  0.8570449944435372  0.4314525990138419  0.5041730100868125   T   T   T
  0.8573991953311644  0.5739777274017843  0.5051073364525779   T   T   T
  0.8582667562091050  0.7163662278545644  0.5058335467670591   T   T   T
  0.8545802068372351  0.8574827327933799  0.5048900488594211   T   T   T
  0.0470577922649909  0.0971377134693233  0.5026245568418638   T   T   T
  0.0466792622766429  0.2396871221065430  0.5026263071613023   T   T   T
  0.0480595450070929  0.3837055915282494  0.5028645236191228   T   T   T
  0.0490283701214279  0.5266081665595850  0.5028633254449032   T   T   T
  0.0488587488250679  0.6694415548775491  0.5025222171326692   T   T   T
  0.0480071911105885  0.8122331280496179  0.5022627067586486   T   T   T
  0.0474251143426662  0.9547166281927085  0.5023268388105261   T   T   T
  0.1908944721360158  0.0982924881445991  0.5026500886831889   T   T   T
  0.1907975919628382  0.2406864745734204  0.5033273620772762   T   T   T
  0.1896436296351956  0.3820604950806774  0.5034160751870177   T   T   T
  0.1932348091458879  0.5268605855155607  0.5035907455389093   T   T   T
  0.1921796184465792  0.6696114215273784  0.5030965503645117   T   T   T
  0.1913823436296893  0.8125657303747273  0.5023760943371984   T   T   T
  0.1910461701048480  0.9554892233001978  0.5021983961483113   T   T   T
  0.3340185490605095  0.0992070297656100  0.5031927034025493   T   T   T
  0.3378485094049892  0.2429835763047630  0.5038151056274622   T   T   T
  0.3392912421073376  0.6731883564214429  0.5048480834301571   T   T   T
  0.3343888492210891  0.8127459253913586  0.5036581274263755   T   T   T
  0.3337842805491565  0.9557935773266287  0.5031006596953327   T   T   T
  0.4764995482292081  0.0992812101809343  0.5039135779366222   T   T   T
  0.4741576427906422  0.2438798021041788  0.5045848781250897   T   T   T
  0.4745204751097720  0.8093659724494453  0.5046520037136925   T   T   T
  0.4765457846366529  0.9558071975856526  0.5039078206434098   T   T   T
  0.6187540743852019  0.0986420925458024  0.5037397282974220   T   T   T
  0.6186952178180790  0.2425250922348598  0.5046522453232372   T   T   T
  0.6184855908320768  0.9546829792060773  0.5041614092965153   T   T   T
  0.7614623995298797  0.0980618795109263  0.5031318298721218   T   T   T
  0.7616976409037133  0.2412038286740576  0.5036350081287079   T   T   T
  0.7612153564351487  0.3843107778543490  0.5050978074630047   T   T   T
  0.7607825292986031  0.5290115742986383  0.5081246058548892   T   T   T
  0.7630180460395213  0.6650441886186573  0.5110574732524275   T   T   T
  0.7577310435498780  0.8079657776419441  0.5085976343331267   T   T   T
  0.7602547318206930  0.9539132148581128  0.5045624099815564   T   T   T
  0.9036355653013897  0.0966736627561749  0.5028492572430362   T   T   T
  0.9044516324770587  0.2406732343166739  0.5027811368288405   T   T   T
  0.9047482169261450  0.3839536365571503  0.5034013895006688   T   T   T
  0.9053206459904148  0.5266718197974821  0.5038412452814502   T   T   T
  0.9058303086994088  0.6690373494203929  0.5043272750656157   T   T   T
  0.9040712353631902  0.8114248329618239  0.5042764260931513   T   T   T
  0.9030511898145153  0.9531457934603443  0.5033607480265676   T   T   T
  0.7156401955828345  0.7139787465074252  0.5146902433586679   T   T   T
  0.3321674603993147  0.5223743069485983  0.5066734840558926   T   T   T
  0.6278531038756825  0.6658261126513902  0.5249742163968397   T   T   T
  0.4208041566909907  0.5620409864332195  0.5108792100771757   T   T   T
  0.4278468762255137  0.2878862696067041  0.5049241314942695   T   T   T
  0.4291880254913419  0.7192211417124902  0.5051792961751838   T   T   T
  0.7170541276128618  0.5743463210731028  0.5128582353002687   T   T   T
  0.3313675514968978  0.3817096142578941  0.5040732909341993   T   T   T
  0.6199943161342414  0.3841323651202914  0.5059728321734216   T   T   T
  0.6186932741520668  0.8139397194441309  0.5065290151304983   T   T   T
  0.4631597946923783  0.4502512889335510  0.4747645230417052   T   T   T
  0.5540170944121316  0.4536322896890854  0.4805490041152247   T   T   T
  0.5271269599491335  0.4900154999527685  0.4651120309999968   T   T   F
 
  0.00000000E+00  0.00000000E+00  0.00000000E+00
  0.00000000E+00  0.00000000E+00  0.00000000E+00
  0.00000000E+00  0.00000000E+00  0.00000000E+00
  0.00000000E+00  0.00000000E+00  0.00000000E+00
  0.00000000E+00  0.00000000E+00  0.00000000E+00
  0.00000000E+00  0.00000000E+00  0.00000000E+00
  0.00000000E+00  0.00000000E+00  0.00000000E+00
  0.00000000E+00  0.00000000E+00  0.00000000E+00
  0.00000000E+00  0.00000000E+00  0.00000000E+00
  0.00000000E+00  0.00000000E+00  0.00000000E+00
  0.00000000E+00  0.00000000E+00  0.00000000E+00
  0.00000000E+00  0.00000000E+00  0.00000000E+00
  0.00000000E+00  0.00000000E+00  0.00000000E+00
  0.00000000E+00  0.00000000E+00  0.00000000E+00
  0.00000000E+00  0.00000000E+00  0.00000000E+00
  0.00000000E+00  0.00000000E+00  0.00000000E+00
  0.00000000E+00  0.00000000E+00  0.00000000E+00
  0.00000000E+00  0.00000000E+00  0.00000000E+00
  0.00000000E+00  0.00000000E+00  0.00000000E+00
  0.00000000E+00  0.00000000E+00  0.00000000E+00
  0.00000000E+00  0.00000000E+00  0.00000000E+00
  0.00000000E+00  0.00000000E+00  0.00000000E+00
  0.00000000E+00  0.00000000E+00  0.00000000E+00
  0.00000000E+00  0.00000000E+00  0.00000000E+00
  0.00000000E+00  0.00000000E+00  0.00000000E+00
  0.00000000E+00  0.00000000E+00  0.00000000E+00
  0.00000000E+00  0.00000000E+00  0.00000000E+00
  0.00000000E+00  0.00000000E+00  0.00000000E+00
  0.00000000E+00  0.00000000E+00  0.00000000E+00
  0.00000000E+00  0.00000000E+00  0.00000000E+00
  0.00000000E+00  0.00000000E+00  0.00000000E+00
  0.00000000E+00  0.00000000E+00  0.00000000E+00
  0.00000000E+00  0.00000000E+00  0.00000000E+00
  0.00000000E+00  0.00000000E+00  0.00000000E+00
  0.00000000E+00  0.00000000E+00  0.00000000E+00
  0.00000000E+00  0.00000000E+00  0.00000000E+00
  0.00000000E+00  0.00000000E+00  0.00000000E+00
  0.00000000E+00  0.00000000E+00  0.00000000E+00
  0.00000000E+00  0.00000000E+00  0.00000000E+00
  0.00000000E+00  0.00000000E+00  0.00000000E+00
  0.00000000E+00  0.00000000E+00  0.00000000E+00
  0.00000000E+00  0.00000000E+00  0.00000000E+00
  0.00000000E+00  0.00000000E+00  0.00000000E+00
  0.00000000E+00  0.00000000E+00  0.00000000E+00
  0.00000000E+00  0.00000000E+00  0.00000000E+00
  0.00000000E+00  0.00000000E+00  0.00000000E+00
  0.00000000E+00  0.00000000E+00  0.00000000E+00
  0.00000000E+00  0.00000000E+00  0.00000000E+00
  0.00000000E+00  0.00000000E+00  0.00000000E+00
  0.00000000E+00  0.00000000E+00  0.00000000E+00
  0.00000000E+00  0.00000000E+00  0.00000000E+00
  0.00000000E+00  0.00000000E+00  0.00000000E+00
  0.00000000E+00  0.00000000E+00  0.00000000E+00
  0.00000000E+00  0.00000000E+00  0.00000000E+00
  0.00000000E+00  0.00000000E+00  0.00000000E+00
  0.00000000E+00  0.00000000E+00  0.00000000E+00
  0.00000000E+00  0.00000000E+00  0.00000000E+00
  0.00000000E+00  0.00000000E+00  0.00000000E+00
  0.00000000E+00  0.00000000E+00  0.00000000E+00
  0.00000000E+00  0.00000000E+00  0.00000000E+00
  0.00000000E+00  0.00000000E+00  0.00000000E+00
  0.00000000E+00  0.00000000E+00  0.00000000E+00
  0.00000000E+00  0.00000000E+00  0.00000000E+00
  0.00000000E+00  0.00000000E+00  0.00000000E+00
  0.00000000E+00  0.00000000E+00  0.00000000E+00
  0.00000000E+00  0.00000000E+00  0.00000000E+00
  0.00000000E+00  0.00000000E+00  0.00000000E+00
  0.00000000E+00  0.00000000E+00  0.00000000E+00
  0.00000000E+00  0.00000000E+00  0.00000000E+00
  0.00000000E+00  0.00000000E+00  0.00000000E+00
  0.00000000E+00  0.00000000E+00  0.00000000E+00
  0.00000000E+00  0.00000000E+00  0.00000000E+00
  0.00000000E+00  0.00000000E+00  0.00000000E+00
  0.00000000E+00  0.00000000E+00  0.00000000E+00
  0.00000000E+00  0.00000000E+00  0.00000000E+00
  0.00000000E+00  0.00000000E+00  0.00000000E+00
  0.00000000E+00  0.00000000E+00  0.00000000E+00
  0.00000000E+00  0.00000000E+00  0.00000000E+00
  0.00000000E+00  0.00000000E+00  0.00000000E+00
  0.00000000E+00  0.00000000E+00  0.00000000E+00
  0.00000000E+00  0.00000000E+00  0.00000000E+00
  0.00000000E+00  0.00000000E+00  0.00000000E+00
  0.00000000E+00  0.00000000E+00  0.00000000E+00
  0.00000000E+00  0.00000000E+00  0.00000000E+00
  0.00000000E+00  0.00000000E+00  0.00000000E+00
  0.00000000E+00  0.00000000E+00  0.00000000E+00
  0.00000000E+00  0.00000000E+00  0.00000000E+00
  0.00000000E+00  0.00000000E+00  0.00000000E+00
  0.00000000E+00  0.00000000E+00  0.00000000E+00
  0.00000000E+00  0.00000000E+00  0.00000000E+00
  0.00000000E+00  0.00000000E+00  0.00000000E+00
  0.00000000E+00  0.00000000E+00  0.00000000E+00
  0.00000000E+00  0.00000000E+00  0.00000000E+00
