C    N    H    O                        
   1.00000000000000     
    17.2710380553999983    0.0000000000000000    0.0000000000000000
    -8.6355190276999991   14.9571577057000002    0.0000000000000000
     0.0000000000000000    0.0000000000000000   15.0000000000000000
  C/253f7b50bb8d  N/e053789ff3a6  H/030f79b5d3ab  O/818f92134a0a
              80               8               2               1
Selective dynamics
Direct
  0.0000213310333194  0.0003945446252787  0.5009023079606231   T   T   T
  0.9992897824504297  0.1427600230531427  0.5007491430659597   T   T   T
  0.9991105531056523  0.2857294048290167  0.5006558922715396   T   T   T
  0.9992785556688163  0.4288783969703243  0.5009512774194259   T   T   T
  0.0000269635924301  0.5719970914011304  0.5010381489114639   T   T   T
  0.0014899881791258  0.7153444488511369  0.5006534280904791   T   T   T
  0.0014785433465021  0.8585379406415370  0.5006582721244563   T   T   T
  0.1444084556292231  0.0022103218415365  0.5010010356913494   T   T   T
  0.1438358920120565  0.1448228264703551  0.5011867862100275   T   T   T
  0.1422789370996805  0.2859625889787108  0.5011014052974545   T   T   T
  0.1422602912225737  0.4286278351224788  0.5009709952435648   T   T   T
  0.1438159271800730  0.5713905311313319  0.5010883222729478   T   T   T
  0.1443600119342793  0.7145992975787367  0.5006604888498252   T   T   T
  0.1444043788574702  0.8584207152643452  0.5005253011604391   T   T   T
  0.2869486596756506  0.0016681701770726  0.5009583015574265   T   T   T
  0.2877348960535835  0.1465229418163912  0.5018027308748757   T   T   T
  0.2887144293100350  0.2939280247747235  0.5028381380375071   T   T   T
  0.2850912348273426  0.4286643063976994  0.5024294668022051   T   T   T
  0.2887265199809944  0.5671553287945680  0.5016897262481171   T   T   T
  0.2876443880999133  0.7136127680220913  0.5012667187470503   T   T   T
  0.2869058641590843  0.8577340124611343  0.5009180421524473   T   T   T
  0.4294885921254870  0.0009989162178729  0.5014954993368478   T   T   T
  0.4296086487838843  0.1458322190345749  0.5016500358521780   T   T   T
  0.4295654109023735  0.8562524959895718  0.5017260649341434   T   T   T
  0.5713723217304014  0.9997881558145690  0.5015825761460652   T   T   T
  0.5713680210364978  0.1441393361502654  0.5017207909453756   T   T   T
  0.5736714599905015  0.2918590444238143  0.5017180796693226   T   T   T
  0.5736823601404892  0.8543605994395589  0.5018920164231296   T   T   T
  0.7134698525057596  0.9985914147600856  0.5010249268178582   T   T   T
  0.7138174514191667  0.1431599573403713  0.5010049341546904   T   T   T
  0.7134819057837837  0.2873974047187443  0.5015154558903170   T   T   T
  0.7091137548448926  0.4283334833993461  0.5017394798372213   T   T   T
  0.7090740974679632  0.8532707353804527  0.5016859390403597   T   T   T
  0.8561307091809605  0.9989263924519476  0.5009321424954272   T   T   T
  0.8561027432628372  0.1425098433707976  0.5005857584111325   T   T   T
  0.8561088273537277  0.2860470915279422  0.5008424065640489   T   T   T
  0.8561140328640867  0.4296170031443619  0.5013710570754356   T   T   T
  0.8564213667907397  0.5727292123486986  0.5012098459479152   T   T   T
  0.8587728826792285  0.7155716980410693  0.5008210795589174   T   T   T
  0.8564008023974574  0.8560647100774598  0.5009941788211832   T   T   T
  0.0479838953031318  0.0960689603708669  0.5008710051500918   T   T   T
  0.0466094305637658  0.2379159739903194  0.5007674715637541   T   T   T
  0.0465849921498518  0.3810296194079859  0.5007531919306976   T   T   T
  0.0479872441005394  0.5242756837510214  0.5010556255762069   T   T   T
  0.0487080281207669  0.6673906783814901  0.5007213341199918   T   T   T
  0.0489606364109377  0.8106732953409315  0.5005602955927689   T   T   T
  0.0487343332009593  0.9537230531083012  0.5008766897659291   T   T   T
  0.1920063166645829  0.0976227730354106  0.5013938737822687   T   T   T
  0.1916657051312748  0.2403971974191006  0.5014407267920123   T   T   T
  0.1892324525595098  0.3807902544525604  0.5011863525976585   T   T   T
  0.1916569079389761  0.5236110961531750  0.5012514311695000   T   T   T
  0.1919246667110757  0.6667648441628750  0.5010071464062006   T   T   T
  0.1918692714588171  0.8103324719309676  0.5005640852652694   T   T   T
  0.1919077584899190  0.9539934807176481  0.5007950848562330   T   T   T
  0.3345792718374456  0.0979187119873802  0.5014566498752319   T   T   T
  0.3389952381061438  0.2432759828323612  0.5026083660581140   T   T   T
  0.3389019869083429  0.6681495433622432  0.5016251254691013   T   T   T
  0.3345124379199261  0.8090972150443080  0.5013247036510374   T   T   T
  0.3341059699363607  0.9532934513196638  0.5010001992847856   T   T   T
  0.4765925859265848  0.0967301573388978  0.5016522432791958   T   T   T
  0.4743953258749283  0.2421577738080266  0.5019110810355165   T   T   T
  0.4743255247179208  0.8046676399296244  0.5019339285247850   T   T   T
  0.4765896086742584  0.9523896125246447  0.5017386092095734   T   T   T
  0.6184563662573441  0.0955053264801313  0.5014656202823941   T   T   T
  0.6184344343481520  0.2403011595832009  0.5017611814331859   T   T   T
  0.6184091370484204  0.9506911724043819  0.5014623818636752   T   T   T
  0.7610379614148001  0.0948390466434684  0.5007080526129621   T   T   T
  0.7610422988376606  0.2387039139664410  0.5010495417404657   T   T   T
  0.7603644480738044  0.3828443580285348  0.5015905932034868   T   T   T
  0.7593533127500127  0.5292597139822103  0.5018790822155187   T   T   T
  0.7628306788003593  0.6676128131145155  0.5018846186622805   T   T   T
  0.7593165093082047  0.8024728291297210  0.5016913256849838   T   T   T
  0.7603915528024208  0.9500410474893370  0.5011283689708749   T   T   T
  0.9036221559939707  0.0943067420260742  0.5007458134154125   T   T   T
  0.9036490264817035  0.2380509852729581  0.5006029836211745   T   T   T
  0.9036161789852438  0.3817389931630791  0.5010656955100405   T   T   T
  0.9042249568378800  0.5249346876390764  0.5012529509290009   T   T   T
  0.9057882272510194  0.6677063960895252  0.5008474629910715   T   T   T
  0.9057575299076049  0.8104467751347890  0.5007066729757556   T   T   T
  0.9042086133189012  0.9516584525053488  0.5009539631642209   T   T   T
  0.4288194806737121  0.2870943539274755  0.5025332234579525   T   T   T
  0.4286864329659595  0.7141868696211155  0.5019133091140100   T   T   T
  0.7161023979375406  0.5756919121402743  0.5028588810224742   T   T   T
  0.7160999824509514  0.7128052478122214  0.5025277076678243   T   T   T
  0.3318377257785342  0.3835697082589283  0.5042121264220801   T   T   T
  0.3319223855505040  0.5206067197387615  0.5023684157629176   T   T   T
  0.6192833517577340  0.3823989507721821  0.5014975448512563   T   T   T
  0.6192894004983919  0.8094854632356755  0.5021223063353460   T   T   T
  0.5285606012302552  0.4779121797185301  0.4380434365645819   T   T   T
  0.5055846074309835  0.5525535976510558  0.4331062668034417   T   T   T
  0.5192808120650332  0.5150781672059136  0.3953361829999977   T   T   F
 
  0.00000000E+00  0.00000000E+00  0.00000000E+00
  0.00000000E+00  0.00000000E+00  0.00000000E+00
  0.00000000E+00  0.00000000E+00  0.00000000E+00
  0.00000000E+00  0.00000000E+00  0.00000000E+00
  0.00000000E+00  0.00000000E+00  0.00000000E+00
  0.00000000E+00  0.00000000E+00  0.00000000E+00
  0.00000000E+00  0.00000000E+00  0.00000000E+00
  0.00000000E+00  0.00000000E+00  0.00000000E+00
  0.00000000E+00  0.00000000E+00  0.00000000E+00
  0.00000000E+00  0.00000000E+00  0.00000000E+00
  0.00000000E+00  0.00000000E+00  0.00000000E+00
  0.00000000E+00  0.00000000E+00  0.00000000E+00
  0.00000000E+00  0.00000000E+00  0.00000000E+00
  0.00000000E+00  0.00000000E+00  0.00000000E+00
  0.00000000E+00  0.00000000E+00  0.00000000E+00
  0.00000000E+00  0.00000000E+00  0.00000000E+00
  0.00000000E+00  0.00000000E+00  0.00000000E+00
  0.00000000E+00  0.00000000E+00  0.00000000E+00
  0.00000000E+00  0.00000000E+00  0.00000000E+00
  0.00000000E+00  0.00000000E+00  0.00000000E+00
  0.00000000E+00  0.00000000E+00  0.00000000E+00
  0.00000000E+00  0.00000000E+00  0.00000000E+00
  0.00000000E+00  0.00000000E+00  0.00000000E+00
  0.00000000E+00  0.00000000E+00  0.00000000E+00
  0.00000000E+00  0.00000000E+00  0.00000000E+00
  0.00000000E+00  0.00000000E+00  0.00000000E+00
  0.00000000E+00  0.00000000E+00  0.00000000E+00
  0.00000000E+00  0.00000000E+00  0.00000000E+00
  0.00000000E+00  0.00000000E+00  0.00000000E+00
  0.00000000E+00  0.00000000E+00  0.00000000E+00
  0.00000000E+00  0.00000000E+00  0.00000000E+00
  0.00000000E+00  0.00000000E+00  0.00000000E+00
  0.00000000E+00  0.00000000E+00  0.00000000E+00
  0.00000000E+00  0.00000000E+00  0.00000000E+00
  0.00000000E+00  0.00000000E+00  0.00000000E+00
  0.00000000E+00  0.00000000E+00  0.00000000E+00
  0.00000000E+00  0.00000000E+00  0.00000000E+00
  0.00000000E+00  0.00000000E+00  0.00000000E+00
  0.00000000E+00  0.00000000E+00  0.00000000E+00
  0.00000000E+00  0.00000000E+00  0.00000000E+00
  0.00000000E+00  0.00000000E+00  0.00000000E+00
  0.00000000E+00  0.00000000E+00  0.00000000E+00
  0.00000000E+00  0.00000000E+00  0.00000000E+00
  0.00000000E+00  0.00000000E+00  0.00000000E+00
  0.00000000E+00  0.00000000E+00  0.00000000E+00
  0.00000000E+00  0.00000000E+00  0.00000000E+00
  0.00000000E+00  0.00000000E+00  0.00000000E+00
  0.00000000E+00  0.00000000E+00  0.00000000E+00
  0.00000000E+00  0.00000000E+00  0.00000000E+00
  0.00000000E+00  0.00000000E+00  0.00000000E+00
  0.00000000E+00  0.00000000E+00  0.00000000E+00
  0.00000000E+00  0.00000000E+00  0.00000000E+00
  0.00000000E+00  0.00000000E+00  0.00000000E+00
  0.00000000E+00  0.00000000E+00  0.00000000E+00
  0.00000000E+00  0.00000000E+00  0.00000000E+00
  0.00000000E+00  0.00000000E+00  0.00000000E+00
  0.00000000E+00  0.00000000E+00  0.00000000E+00
  0.00000000E+00  0.00000000E+00  0.00000000E+00
  0.00000000E+00  0.00000000E+00  0.00000000E+00
  0.00000000E+00  0.00000000E+00  0.00000000E+00
  0.00000000E+00  0.00000000E+00  0.00000000E+00
  0.00000000E+00  0.00000000E+00  0.00000000E+00
  0.00000000E+00  0.00000000E+00  0.00000000E+00
  0.00000000E+00  0.00000000E+00  0.00000000E+00
  0.00000000E+00  0.00000000E+00  0.00000000E+00
  0.00000000E+00  0.00000000E+00  0.00000000E+00
  0.00000000E+00  0.00000000E+00  0.00000000E+00
  0.00000000E+00  0.00000000E+00  0.00000000E+00
  0.00000000E+00  0.00000000E+00  0.00000000E+00
  0.00000000E+00  0.00000000E+00  0.00000000E+00
  0.00000000E+00  0.00000000E+00  0.00000000E+00
  0.00000000E+00  0.00000000E+00  0.00000000E+00
  0.00000000E+00  0.00000000E+00  0.00000000E+00
  0.00000000E+00  0.00000000E+00  0.00000000E+00
  0.00000000E+00  0.00000000E+00  0.00000000E+00
  0.00000000E+00  0.00000000E+00  0.00000000E+00
  0.00000000E+00  0.00000000E+00  0.00000000E+00
  0.00000000E+00  0.00000000E+00  0.00000000E+00
  0.00000000E+00  0.00000000E+00  0.00000000E+00
  0.00000000E+00  0.00000000E+00  0.00000000E+00
  0.00000000E+00  0.00000000E+00  0.00000000E+00
  0.00000000E+00  0.00000000E+00  0.00000000E+00
  0.00000000E+00  0.00000000E+00  0.00000000E+00
  0.00000000E+00  0.00000000E+00  0.00000000E+00
  0.00000000E+00  0.00000000E+00  0.00000000E+00
  0.00000000E+00  0.00000000E+00  0.00000000E+00
  0.00000000E+00  0.00000000E+00  0.00000000E+00
  0.00000000E+00  0.00000000E+00  0.00000000E+00
  0.00000000E+00  0.00000000E+00  0.00000000E+00
  0.00000000E+00  0.00000000E+00  0.00000000E+00
  0.00000000E+00  0.00000000E+00  0.00000000E+00
