C4                                      
    1.000000000000000     
    17.2710380553999983    0.0000000000000000    0.0000000000000000
    -8.6355190276999991   14.9571577057000002    0.0000000000000000
     0.0000000000000000    0.0000000000000000   15.0000000000000000
   C    F    N    H    O 
    84     4     4     2     1
Selective dynamics
Direct
  0.0004428857257961  0.0000784787026209  0.5024937370240827   T   T   T
  0.9991051926898825  0.1419391786576927  0.5021384065580607   T   T   T
  0.9992084248728779  0.2852293457374851  0.5023134239851660   T   T   T
  0.9998953445135487  0.4284934350082044  0.5032830054367563   T   T   T
  0.0002310058253840  0.5715717073619276  0.5037868030049777   T   T   T
  0.0011632393859989  0.7146504369840491  0.5035812397707089   T   T   T
  0.0022103660144918  0.8584246304301290  0.5028120908322556   T   T   T
  0.1444499237243043  0.0018423119581086  0.5034271447437617   T   T   T
  0.1431057904692299  0.1437395586455406  0.5040959670260696   T   T   T
  0.1410256927594773  0.2849616403106042  0.5052777594305751   T   T   T
  0.1424059977135063  0.4288205494155055  0.5067616878102863   T   T   T
  0.1435374662036273  0.5715531015932900  0.5061746170767687   T   T   T
  0.1435413597635043  0.7147669543289499  0.5048802421063470   T   T   T
  0.1441342904052898  0.8583584092773077  0.5035132078148923   T   T   T
  0.2870361564579768  0.0021336156915397  0.5041346084547845   T   T   T
  0.2872804400966762  0.1459214905770613  0.5052662411929647   T   T   T
  0.2856330209785430  0.2908134140062912  0.5095555987881851   T   T   T
  0.2827480550943763  0.4241761275197418  0.5163297263403335   T   T   T
  0.2878719042793594  0.5716321088469247  0.5161491008842168   T   T   T
  0.2857494755219937  0.7150817602087441  0.5094041162469315   T   T   T
  0.2859855005156844  0.8584578604444252  0.5054318718492384   T   T   T
  0.4291997336044655  0.0010673753448331  0.5052525608282501   T   T   T
  0.4304293306978766  0.1455520787094477  0.5048833311579803   T   T   T
  0.4285958327451878  0.2853345598081051  0.5051071004446965   T   T   T
  0.4277014406912723  0.8572276738953463  0.5077892151261602   T   T   T
  0.5710995592706006  0.9989329480812638  0.5051078966885079   T   T   T
  0.5720339467602719  0.1426842870960312  0.5041602026558000   T   T   T
  0.5764882747056911  0.2894630769608156  0.5054441313527759   T   T   T
  0.5691391783052945  0.8539392539535913  0.5075875890362459   T   T   T
  0.7131320898662167  0.9972190595107379  0.5035694889754413   T   T   T
  0.7142363817287207  0.1415205470880931  0.5026200409285366   T   T   T
  0.7151841030034509  0.2851819732326348  0.5037298127939990   T   T   T
  0.7117085261721390  0.4252126799959927  0.5080605766175647   T   T   T
  0.7185204180596372  0.5756772454360879  0.5160142140347983   T   T   T
  0.7132472723495653  0.8534046490277734  0.5057186251331554   T   T   T
  0.8563971205353045  0.9983466333673955  0.5026305819733957   T   T   T
  0.8562691586905916  0.1414442811822039  0.5015920303679083   T   T   T
  0.8570381150366517  0.2850340172324805  0.5020118365812749   T   T   T
  0.8574581076041897  0.4283830347788812  0.5038526159288864   T   T   T
  0.8566481884008914  0.5712439564850086  0.5056538623318165   T   T   T
  0.8601573602002667  0.7157115067702775  0.5055617705003388   T   T   T
  0.8585185313255241  0.8566421186134965  0.5039337200549010   T   T   T
  0.0477396482856205  0.0953208283532424  0.5026729521893784   T   T   T
  0.0459828422460715  0.2370363397808328  0.5027210331197106   T   T   T
  0.0470696068291116  0.3808149267322382  0.5036206179518523   T   T   T
  0.0480528491055590  0.5238938801183712  0.5040957275217858   T   T   T
  0.0483349595090623  0.6669814088146939  0.5038451605552705   T   T   T
  0.0489795623979036  0.8102101410020163  0.5031640930789018   T   T   T
  0.0490772053483224  0.9534646690721138  0.5027390791762517   T   T   T
  0.1917427095184425  0.0970059603160856  0.5043882778709181   T   T   T
  0.1896132970829382  0.2388018092065416  0.5060255812427659   T   T   T
  0.1880701472811411  0.3797836026502551  0.5084606230890825   T   T   T
  0.1915654269084448  0.5242064330550998  0.5088400823954520   T   T   T
  0.1907443295944622  0.6670623292511004  0.5069319735827672   T   T   T
  0.1911838593861961  0.8103988536100520  0.5045651879551588   T   T   T
  0.1918858671069381  0.9539141950780838  0.5035975657868473   T   T   T
  0.3349644298149005  0.0980966948620774  0.5046119245943913   T   T   T
  0.3347881276125478  0.2418855191018108  0.5067144612209232   T   T   T
  0.3291580506967833  0.5196025966260827  0.5249089947135211   T   T   T
  0.3364143693870885  0.6702051468753721  0.5139503196445294   T   T   T
  0.3329933482406188  0.8101999377158220  0.5075659263963145   T   T   T
  0.3339078466357167  0.9537979266729123  0.5047985268041145   T   T   T
  0.4770546441592555  0.0963808248384937  0.5048029320451314   T   T   T
  0.4789559494420510  0.2413539251225354  0.5050256580160845   T   T   T
  0.4716699926051693  0.8058811144799469  0.5097923082153845   T   T   T
  0.4761099052262107  0.9526137019330557  0.5060291923082850   T   T   T
  0.6189538595952654  0.0942315387403938  0.5038016131396150   T   T   T
  0.6204476188550661  0.2380967561258384  0.5042211768784411   T   T   T
  0.6194241283078840  0.8099223258173474  0.5073627024636794   T   T   T
  0.6176855267797168  0.9497536702292064  0.5053556920946795   T   T   T
  0.7611039223976984  0.0931774149873754  0.5022923497290632   T   T   T
  0.7622040535426859  0.2368971667358664  0.5024384606918675   T   T   T
  0.7624111639085436  0.3803311319965708  0.5049391782313538   T   T   T
  0.7601203760614925  0.5237594161399161  0.5099415202205213   T   T   T
  0.7653479336512343  0.6712272317776371  0.5103492168935027   T   T   T
  0.7624800081582040  0.8045887981109564  0.5065166117253996   T   T   T
  0.7608030620050603  0.9493810397938716  0.5038221299207236   T   T   T
  0.9036834207662877  0.0935306613481137  0.5018298347781831   T   T   T
  0.9040670312663803  0.2370343829577216  0.5015661174123708   T   T   T
  0.9046670371268589  0.3806754497113844  0.5027407560507969   T   T   T
  0.9047222944302530  0.5239277926751424  0.5040522715968022   T   T   T
  0.9058056345671536  0.6666392086936771  0.5048921660744274   T   T   T
  0.9071630884029180  0.8105167511048078  0.5037061488920499   T   T   T
  0.9050766017324661  0.9517005948947588  0.5027357110724232   T   T   T
  0.4733723243298144  0.3746809908926180  0.5030859608624693   T   T   T
  0.4162604535920455  0.5583326351801110  0.5440263850985588   T   T   T
  0.6303237455878672  0.5367504945568933  0.5290302654302449   T   T   T
  0.5745168157161585  0.7205629541387861  0.5089153311187493   T   T   T
  0.4258238740142812  0.7158292310136904  0.5138438249266782   T   T   T
  0.7187997408511786  0.7151473041135072  0.5105983300930246   T   T   T
  0.3292480847969780  0.3801444113208449  0.5164208838005934   T   T   T
  0.6222857635199276  0.3795525802767402  0.5079437816382554   T   T   T
  0.5486229924982382  0.5957733016820934  0.4350887625554962   T   T   T
  0.4844980870430196  0.4946446657370865  0.4350968199346537   T   T   T
  0.5129447483094512  0.5459365517015560  0.3953361829999977   T   T   F
 
  0.00000000E+00  0.00000000E+00  0.00000000E+00
  0.00000000E+00  0.00000000E+00  0.00000000E+00
  0.00000000E+00  0.00000000E+00  0.00000000E+00
  0.00000000E+00  0.00000000E+00  0.00000000E+00
  0.00000000E+00  0.00000000E+00  0.00000000E+00
  0.00000000E+00  0.00000000E+00  0.00000000E+00
  0.00000000E+00  0.00000000E+00  0.00000000E+00
  0.00000000E+00  0.00000000E+00  0.00000000E+00
  0.00000000E+00  0.00000000E+00  0.00000000E+00
  0.00000000E+00  0.00000000E+00  0.00000000E+00
  0.00000000E+00  0.00000000E+00  0.00000000E+00
  0.00000000E+00  0.00000000E+00  0.00000000E+00
  0.00000000E+00  0.00000000E+00  0.00000000E+00
  0.00000000E+00  0.00000000E+00  0.00000000E+00
  0.00000000E+00  0.00000000E+00  0.00000000E+00
  0.00000000E+00  0.00000000E+00  0.00000000E+00
  0.00000000E+00  0.00000000E+00  0.00000000E+00
  0.00000000E+00  0.00000000E+00  0.00000000E+00
  0.00000000E+00  0.00000000E+00  0.00000000E+00
  0.00000000E+00  0.00000000E+00  0.00000000E+00
  0.00000000E+00  0.00000000E+00  0.00000000E+00
  0.00000000E+00  0.00000000E+00  0.00000000E+00
  0.00000000E+00  0.00000000E+00  0.00000000E+00
  0.00000000E+00  0.00000000E+00  0.00000000E+00
  0.00000000E+00  0.00000000E+00  0.00000000E+00
  0.00000000E+00  0.00000000E+00  0.00000000E+00
  0.00000000E+00  0.00000000E+00  0.00000000E+00
  0.00000000E+00  0.00000000E+00  0.00000000E+00
  0.00000000E+00  0.00000000E+00  0.00000000E+00
  0.00000000E+00  0.00000000E+00  0.00000000E+00
  0.00000000E+00  0.00000000E+00  0.00000000E+00
  0.00000000E+00  0.00000000E+00  0.00000000E+00
  0.00000000E+00  0.00000000E+00  0.00000000E+00
  0.00000000E+00  0.00000000E+00  0.00000000E+00
  0.00000000E+00  0.00000000E+00  0.00000000E+00
  0.00000000E+00  0.00000000E+00  0.00000000E+00
  0.00000000E+00  0.00000000E+00  0.00000000E+00
  0.00000000E+00  0.00000000E+00  0.00000000E+00
  0.00000000E+00  0.00000000E+00  0.00000000E+00
  0.00000000E+00  0.00000000E+00  0.00000000E+00
  0.00000000E+00  0.00000000E+00  0.00000000E+00
  0.00000000E+00  0.00000000E+00  0.00000000E+00
  0.00000000E+00  0.00000000E+00  0.00000000E+00
  0.00000000E+00  0.00000000E+00  0.00000000E+00
  0.00000000E+00  0.00000000E+00  0.00000000E+00
  0.00000000E+00  0.00000000E+00  0.00000000E+00
  0.00000000E+00  0.00000000E+00  0.00000000E+00
  0.00000000E+00  0.00000000E+00  0.00000000E+00
  0.00000000E+00  0.00000000E+00  0.00000000E+00
  0.00000000E+00  0.00000000E+00  0.00000000E+00
  0.00000000E+00  0.00000000E+00  0.00000000E+00
  0.00000000E+00  0.00000000E+00  0.00000000E+00
  0.00000000E+00  0.00000000E+00  0.00000000E+00
  0.00000000E+00  0.00000000E+00  0.00000000E+00
  0.00000000E+00  0.00000000E+00  0.00000000E+00
  0.00000000E+00  0.00000000E+00  0.00000000E+00
  0.00000000E+00  0.00000000E+00  0.00000000E+00
  0.00000000E+00  0.00000000E+00  0.00000000E+00
  0.00000000E+00  0.00000000E+00  0.00000000E+00
  0.00000000E+00  0.00000000E+00  0.00000000E+00
  0.00000000E+00  0.00000000E+00  0.00000000E+00
  0.00000000E+00  0.00000000E+00  0.00000000E+00
  0.00000000E+00  0.00000000E+00  0.00000000E+00
  0.00000000E+00  0.00000000E+00  0.00000000E+00
  0.00000000E+00  0.00000000E+00  0.00000000E+00
  0.00000000E+00  0.00000000E+00  0.00000000E+00
  0.00000000E+00  0.00000000E+00  0.00000000E+00
  0.00000000E+00  0.00000000E+00  0.00000000E+00
  0.00000000E+00  0.00000000E+00  0.00000000E+00
  0.00000000E+00  0.00000000E+00  0.00000000E+00
  0.00000000E+00  0.00000000E+00  0.00000000E+00
  0.00000000E+00  0.00000000E+00  0.00000000E+00
  0.00000000E+00  0.00000000E+00  0.00000000E+00
  0.00000000E+00  0.00000000E+00  0.00000000E+00
  0.00000000E+00  0.00000000E+00  0.00000000E+00
  0.00000000E+00  0.00000000E+00  0.00000000E+00
  0.00000000E+00  0.00000000E+00  0.00000000E+00
  0.00000000E+00  0.00000000E+00  0.00000000E+00
  0.00000000E+00  0.00000000E+00  0.00000000E+00
  0.00000000E+00  0.00000000E+00  0.00000000E+00
  0.00000000E+00  0.00000000E+00  0.00000000E+00
  0.00000000E+00  0.00000000E+00  0.00000000E+00
  0.00000000E+00  0.00000000E+00  0.00000000E+00
  0.00000000E+00  0.00000000E+00  0.00000000E+00
  0.00000000E+00  0.00000000E+00  0.00000000E+00
  0.00000000E+00  0.00000000E+00  0.00000000E+00
  0.00000000E+00  0.00000000E+00  0.00000000E+00
  0.00000000E+00  0.00000000E+00  0.00000000E+00
  0.00000000E+00  0.00000000E+00  0.00000000E+00
  0.00000000E+00  0.00000000E+00  0.00000000E+00
  0.00000000E+00  0.00000000E+00  0.00000000E+00
  0.00000000E+00  0.00000000E+00  0.00000000E+00
  0.00000000E+00  0.00000000E+00  0.00000000E+00
  0.00000000E+00  0.00000000E+00  0.00000000E+00
  0.00000000E+00  0.00000000E+00  0.00000000E+00
