C    H    N    O                        
    1.000000000000000     
    17.2710380553999983    0.0000000000000000    0.0000000000000000
    -8.6355190276999991   14.9571577057000002    0.0000000000000000
     0.0000000000000000    0.0000000000000000   15.0000000000000000
   C    H    N    O 
    87     9     1     1
Selective dynamics
Direct
  0.9998510792829441  0.0000997379765316  0.4996600144813407   T   T   T
  0.9996561552219771  0.1428323582553023  0.5001091955821797   T   T   T
 -0.0000447139280910  0.2858761803768545  0.5001205298581913   T   T   T
  0.0002802257540446  0.4288057972666900  0.5000239587043023   T   T   T
  0.0005142500852337  0.5717088010609259  0.4998569668161879   T   T   T
  0.0010856527663680  0.7147987633461522  0.4996093231700426   T   T   T
  0.0007774749272946  0.8578338026935406  0.4994576112417899   T   T   T
  0.1431518950720024  0.0006914220659727  0.4990930427167235   T   T   T
  0.1428747217541402  0.1434423300918330  0.4996080778471028   T   T   T
  0.1426826027467102  0.2861158536713139  0.4994790129290571   T   T   T
  0.1433063602520262  0.4295427701802718  0.4993343729562087   T   T   T
  0.1435727114109180  0.5718954982839780  0.4993741584119432   T   T   T
  0.1434974387828968  0.7146138950817340  0.4991314238388375   T   T   T
  0.1432216525692045  0.8576711833835093  0.4989524360465215   T   T   T
  0.2857439412763358  0.0002450109017138  0.4995155550569418   T   T   T
  0.2858161751288949  0.1430892922585483  0.4999270088639396   T   T   T
  0.2862855305741648  0.2877237129271492  0.4995090170791992   T   T   T
  0.2855581867946168  0.4294162646832910  0.4979347951786551   T   T   T
  0.2881646771005048  0.5727199355406204  0.4987908876373368   T   T   T
  0.2863502236187292  0.7154412857458431  0.4993535942852672   T   T   T
  0.2855109233124753  0.8578629365696802  0.4994135867984473   T   T   T
  0.4286650155705798  0.0000565931686513  0.5004340277091867   T   T   T
  0.4285371306210995  0.1426245187008284  0.5012705833170081   T   T   T
  0.4271211603531722  0.2824275256960755  0.5034616472112252   T   T   T
  0.4277340284958670  0.8569523984493944  0.5002382898458521   T   T   T
  0.5709406664831514  0.9996062691101737  0.5012950592075829   T   T   T
  0.5714266726390378  0.1423456391510231  0.5018629652907113   T   T   T
  0.5724549585800297  0.2858074785365886  0.5036690345562191   T   T   T
  0.5700060238047592  0.8555202548254134  0.5010259488629946   T   T   T
  0.7131858390964022  0.9988842871633374  0.5013577785525734   T   T   T
  0.7142476102810958  0.1424714214787199  0.5016739488741142   T   T   T
  0.7145142969836134  0.2854974933641988  0.5022810689441348   T   T   T
  0.7140817974979162  0.4276307069321649  0.5032494370585046   T   T   T
  0.7177796751791721  0.5733307298117369  0.5028921331690046   T   T   T
  0.7172804295296605  0.7148652998799574  0.5022459514655375   T   T   T
  0.7120917075083633  0.8559412894092006  0.5011460204863524   T   T   T
  0.8565175118347047  0.9995583446841702  0.5006764124392550   T   T   T
  0.8566251600304382  0.1424493851443822  0.5009319740686101   T   T   T
  0.8571013981637098  0.2854613218441138  0.5010572603281434   T   T   T
  0.8576300226677330  0.4285476169542346  0.5012055803681592   T   T   T
  0.8579625331031737  0.5719011290259063  0.5012990000165386   T   T   T
  0.8591440078270345  0.7152042611931536  0.5008925553089615   T   T   T
  0.8571509185987961  0.8568927853156120  0.5004524075917473   T   T   T
  0.0475905772902664  0.0954910256270704  0.4997498831781810   T   T   T
  0.0471809746336702  0.2380373049606118  0.4998983508978456   T   T   T
  0.0476750534820926  0.3813081687949562  0.4998161399477182   T   T   T
  0.0482484415697192  0.5241568195382181  0.4996754617490246   T   T   T
  0.0482912986823281  0.6670460976833135  0.4994383324144204   T   T   T
  0.0480966301930395  0.8099920679173304  0.4992121484303655   T   T   T
  0.0478905937969393  0.9528233807374666  0.4992702849591591   T   T   T
  0.1905228210619477  0.0956024601027959  0.4993305423593941   T   T   T
  0.1904265805645533  0.2387545360455786  0.4995929661299472   T   T   T
  0.1898960072644313  0.3813174999791888  0.4990724702742048   T   T   T
  0.1917475585936900  0.5250262699341361  0.4992647937665141   T   T   T
  0.1910209722416497  0.6672354636855917  0.4992018868590065   T   T   T
  0.1906767941445275  0.8100479048227730  0.4990366018919621   T   T   T
  0.1907493414344818  0.9528269094141522  0.4990459318594229   T   T   T
  0.3334569152385026  0.0956035832883807  0.5001866099635340   T   T   T
  0.3342444653596423  0.2383626849911402  0.5009296355232511   T   T   T
  0.3309784004784426  0.3807080894125960  0.4978199758595321   T   T   T
  0.3323243053122145  0.5240578296570013  0.4973860317481071   T   T   T
  0.3372739880429949  0.6709683175264964  0.4994206326132417   T   T   T
  0.3330377431926286  0.8101944236634053  0.4996684271757563   T   T   T
  0.3332343585946519  0.9527580353658965  0.4997273906024388   T   T   T
  0.4762975288399183  0.0949910392322175  0.5011663679418054   T   T   T
  0.4756563192172153  0.2376173644784576  0.5030159916112589   T   T   T
  0.4723411381995255  0.8064114601670154  0.5005180044683861   T   T   T
  0.4759904439598354  0.9523705870666175  0.5006669232722789   T   T   T
  0.6187614748139012  0.0947162503169367  0.5016703225649461   T   T   T
  0.6193987877756867  0.2377272248884807  0.5026253785215362   T   T   T
  0.6211997955121592  0.3791008624421434  0.5044106008135536   T   T   T
  0.6186651896992665  0.8108517556954994  0.5009061406932019   T   T   T
  0.6177797664708304  0.9511466364272388  0.5013440439150230   T   T   T
  0.7614139519293986  0.0946639151216641  0.5013708622664067   T   T   T
  0.7620513704603553  0.2376507568039918  0.5016816456319779   T   T   T
  0.7623430390312858  0.3806719609150866  0.5022479652431008   T   T   T
  0.7621489972773201  0.5249108583401867  0.5026062418284445   T   T   T
  0.7638457051506603  0.6673834133945352  0.5020538333425983   T   T   T
  0.7611495977220635  0.8076361326041333  0.5012417404159365   T   T   T
  0.7608708818337629  0.9514819378385601  0.5011140253141103   T   T   T
  0.9041975135588092  0.0946350202059513  0.5005761383482644   T   T   T
  0.9045217157751277  0.2378218811399309  0.5007095503304519   T   T   T
  0.9049173656900872  0.3810483629200305  0.5007080606243263   T   T   T
  0.9053058429120576  0.5241199242013430  0.5007500373802850   T   T   T
  0.9058655563510767  0.6670621468734127  0.5005452013376365   T   T   T
  0.9054904949258699  0.8100569344695928  0.5001997284162747   T   T   T
  0.9045107350410070  0.9520866969974279  0.5001666816377784   T   T   T
  0.4632913338271790  0.3548793838259010  0.5064050947094455   T   T   T
  0.4036954757891048  0.4191616716379690  0.4971957951169963   T   T   T
  0.4052355770699416  0.5606052990318926  0.4949281980293433   T   T   T
  0.6445879916000444  0.6755927794444390  0.5038171142625063   T   T   T
  0.6450917337246644  0.5399337041104434  0.5039053599052434   T   T   T
  0.5851013256597614  0.4155053229713215  0.5057866797547654   T   T   T
  0.5798873962807887  0.7381976491414149  0.5003744912202048   T   T   T
  0.4707581407968812  0.5386790666049156  0.6228822031460878   T   T   T
  0.5613360853462539  0.5523232465450575  0.6559522875218373   T   T   T
  0.4272584052666654  0.7159212261578352  0.5002396624078655   T   T   T
  0.5215863479662225  0.5326833546397221  0.6046639079999991   T   T   F
 
  0.00000000E+00  0.00000000E+00  0.00000000E+00
  0.00000000E+00  0.00000000E+00  0.00000000E+00
  0.00000000E+00  0.00000000E+00  0.00000000E+00
  0.00000000E+00  0.00000000E+00  0.00000000E+00
  0.00000000E+00  0.00000000E+00  0.00000000E+00
  0.00000000E+00  0.00000000E+00  0.00000000E+00
  0.00000000E+00  0.00000000E+00  0.00000000E+00
  0.00000000E+00  0.00000000E+00  0.00000000E+00
  0.00000000E+00  0.00000000E+00  0.00000000E+00
  0.00000000E+00  0.00000000E+00  0.00000000E+00
  0.00000000E+00  0.00000000E+00  0.00000000E+00
  0.00000000E+00  0.00000000E+00  0.00000000E+00
  0.00000000E+00  0.00000000E+00  0.00000000E+00
  0.00000000E+00  0.00000000E+00  0.00000000E+00
  0.00000000E+00  0.00000000E+00  0.00000000E+00
  0.00000000E+00  0.00000000E+00  0.00000000E+00
  0.00000000E+00  0.00000000E+00  0.00000000E+00
  0.00000000E+00  0.00000000E+00  0.00000000E+00
  0.00000000E+00  0.00000000E+00  0.00000000E+00
  0.00000000E+00  0.00000000E+00  0.00000000E+00
  0.00000000E+00  0.00000000E+00  0.00000000E+00
  0.00000000E+00  0.00000000E+00  0.00000000E+00
  0.00000000E+00  0.00000000E+00  0.00000000E+00
  0.00000000E+00  0.00000000E+00  0.00000000E+00
  0.00000000E+00  0.00000000E+00  0.00000000E+00
  0.00000000E+00  0.00000000E+00  0.00000000E+00
  0.00000000E+00  0.00000000E+00  0.00000000E+00
  0.00000000E+00  0.00000000E+00  0.00000000E+00
  0.00000000E+00  0.00000000E+00  0.00000000E+00
  0.00000000E+00  0.00000000E+00  0.00000000E+00
  0.00000000E+00  0.00000000E+00  0.00000000E+00
  0.00000000E+00  0.00000000E+00  0.00000000E+00
  0.00000000E+00  0.00000000E+00  0.00000000E+00
  0.00000000E+00  0.00000000E+00  0.00000000E+00
  0.00000000E+00  0.00000000E+00  0.00000000E+00
  0.00000000E+00  0.00000000E+00  0.00000000E+00
  0.00000000E+00  0.00000000E+00  0.00000000E+00
  0.00000000E+00  0.00000000E+00  0.00000000E+00
  0.00000000E+00  0.00000000E+00  0.00000000E+00
  0.00000000E+00  0.00000000E+00  0.00000000E+00
  0.00000000E+00  0.00000000E+00  0.00000000E+00
  0.00000000E+00  0.00000000E+00  0.00000000E+00
  0.00000000E+00  0.00000000E+00  0.00000000E+00
  0.00000000E+00  0.00000000E+00  0.00000000E+00
  0.00000000E+00  0.00000000E+00  0.00000000E+00
  0.00000000E+00  0.00000000E+00  0.00000000E+00
  0.00000000E+00  0.00000000E+00  0.00000000E+00
  0.00000000E+00  0.00000000E+00  0.00000000E+00
  0.00000000E+00  0.00000000E+00  0.00000000E+00
  0.00000000E+00  0.00000000E+00  0.00000000E+00
  0.00000000E+00  0.00000000E+00  0.00000000E+00
  0.00000000E+00  0.00000000E+00  0.00000000E+00
  0.00000000E+00  0.00000000E+00  0.00000000E+00
  0.00000000E+00  0.00000000E+00  0.00000000E+00
  0.00000000E+00  0.00000000E+00  0.00000000E+00
  0.00000000E+00  0.00000000E+00  0.00000000E+00
  0.00000000E+00  0.00000000E+00  0.00000000E+00
  0.00000000E+00  0.00000000E+00  0.00000000E+00
  0.00000000E+00  0.00000000E+00  0.00000000E+00
  0.00000000E+00  0.00000000E+00  0.00000000E+00
  0.00000000E+00  0.00000000E+00  0.00000000E+00
  0.00000000E+00  0.00000000E+00  0.00000000E+00
  0.00000000E+00  0.00000000E+00  0.00000000E+00
  0.00000000E+00  0.00000000E+00  0.00000000E+00
  0.00000000E+00  0.00000000E+00  0.00000000E+00
  0.00000000E+00  0.00000000E+00  0.00000000E+00
  0.00000000E+00  0.00000000E+00  0.00000000E+00
  0.00000000E+00  0.00000000E+00  0.00000000E+00
  0.00000000E+00  0.00000000E+00  0.00000000E+00
  0.00000000E+00  0.00000000E+00  0.00000000E+00
  0.00000000E+00  0.00000000E+00  0.00000000E+00
  0.00000000E+00  0.00000000E+00  0.00000000E+00
  0.00000000E+00  0.00000000E+00  0.00000000E+00
  0.00000000E+00  0.00000000E+00  0.00000000E+00
  0.00000000E+00  0.00000000E+00  0.00000000E+00
  0.00000000E+00  0.00000000E+00  0.00000000E+00
  0.00000000E+00  0.00000000E+00  0.00000000E+00
  0.00000000E+00  0.00000000E+00  0.00000000E+00
  0.00000000E+00  0.00000000E+00  0.00000000E+00
  0.00000000E+00  0.00000000E+00  0.00000000E+00
  0.00000000E+00  0.00000000E+00  0.00000000E+00
  0.00000000E+00  0.00000000E+00  0.00000000E+00
  0.00000000E+00  0.00000000E+00  0.00000000E+00
  0.00000000E+00  0.00000000E+00  0.00000000E+00
  0.00000000E+00  0.00000000E+00  0.00000000E+00
  0.00000000E+00  0.00000000E+00  0.00000000E+00
  0.00000000E+00  0.00000000E+00  0.00000000E+00
  0.00000000E+00  0.00000000E+00  0.00000000E+00
  0.00000000E+00  0.00000000E+00  0.00000000E+00
  0.00000000E+00  0.00000000E+00  0.00000000E+00
  0.00000000E+00  0.00000000E+00  0.00000000E+00
  0.00000000E+00  0.00000000E+00  0.00000000E+00
  0.00000000E+00  0.00000000E+00  0.00000000E+00
  0.00000000E+00  0.00000000E+00  0.00000000E+00
  0.00000000E+00  0.00000000E+00  0.00000000E+00
  0.00000000E+00  0.00000000E+00  0.00000000E+00
  0.00000000E+00  0.00000000E+00  0.00000000E+00
  0.00000000E+00  0.00000000E+00  0.00000000E+00
