C    H    F    O 
    1.000000000000000     
  17.2710380553999983   0.0000000000000000   0.0000000000000000
  -8.6355190276999991  14.9571577057000002   0.0000000000000000
   0.0000000000000000   0.0000000000000000  15.0000000000000000
C    H    F    O 
88  8  2  1  
Selective dynamics
Direct
  0.9999282907616380  0.0007565424566710  0.5028426775797741 T T T
  0.9996627797071016  0.1435443944955475  0.5017145488557900 T T T
  0.9999008976705210  0.2867426715354633  0.5011294877113307 T T T
  0.0005187125326669  0.4299219070676398  0.5009991660565865 T T T
  0.0012710215566170  0.5729731910380030  0.5014835363991260 T T T
  0.0019645358504107  0.7160785433984880  0.5027277494956423 T T T
  0.0013168692774215  0.8589270980076665  0.5034167879301266 T T T
  0.1433968536613757  0.0014935567131604  0.5020415533109323 T T T
  0.1425444977588045  0.1436347982703760  0.5032577282879288 T T T
  0.1417979395596197  0.2858088923994905  0.5046325244050364 T T T
  0.1425779259856728  0.4295376744623717  0.5044105500398278 T T T
  0.1440313319549951  0.5727133148966266  0.5024544339378190 T T T
  0.1441786701084422  0.7158300976233438  0.5007826554291207 T T T
  0.1438706448904868  0.8588293664945000  0.5007319111918151 T T T
  0.2861655838364141  0.0013950134085816  0.5001177931780895 T T T
  0.2858112158698584  0.1437964808530432  0.5033790605322849 T T T
  0.2853324405365300  0.2872573371568676  0.5081637403013483 T T T
  0.2831328020904848  0.4269315900672349  0.5121633596472120 T T T
  0.2875182590405927  0.5726302052612262  0.5083030486007697 T T T
  0.2865922293219410  0.7162115881812632  0.5022364310532390 T T T
  0.2862801127397165  0.8590365653803438  0.4992364267699749 T T T
  0.4291973688748164  0.0022499279015223  0.4983537126760227 T T T
  0.4288930386214913  0.1444040690501358  0.5006576846933646 T T T
  0.4270199642603550  0.2838920054189932  0.5027139620124664 T T T
  0.4283871472597591  0.7195414837400766  0.5043460902113703 T T T
  0.4289219519759500  0.8599597678013495  0.4993788592467263 T T T
  0.5719365450761701  0.0026848442639462  0.4981689699843272 T T T
  0.5719475895994491  0.1447121235004004  0.4987997730941129 T T T
  0.5728374781941270  0.2879205258389203  0.5007524564679650 T T T
  0.5726307366740482  0.8607772510087826  0.5011716083181962 T T T
  0.7148217871249861  0.0018775210823515  0.5002871024163876 T T T
  0.7149421754108257  0.1447211845332638  0.4984453279936538 T T T
  0.7149673874464659  0.2873498927129957  0.5002720931271903 T T T
  0.7147034399174002  0.4292664266138215  0.5044185858295804 T T T
  0.7189390638187335  0.5743709907998371  0.5145846618975612 T T T
  0.7205056541356931  0.7168010621731664  0.5162739095569098 T T T
  0.7132706036889035  0.8585387299401595  0.5061835423615189 T T T
  0.8572088271327480  0.0011381609982379  0.5029023524229406 T T T
  0.8573315793591476  0.1442165209412751  0.4998513206695904 T T T
  0.8575374447678892  0.2870866573148758  0.4996326351065942 T T T
  0.8581516621077243  0.4300621612829706  0.5018568884889686 T T T
  0.8589425413772068  0.5732968585037390  0.5051531361658899 T T T
  0.8603996485420207  0.7165985271086699  0.5081757617994378 T T T
  0.8574588141350286  0.8578299369355085  0.5064561977439669 T T T
  0.0474364332323818  0.0960071471622324  0.5023956998678094 T T T
  0.0467389875598420  0.2384746319005406  0.5021472645147345 T T T
  0.0474078804441400  0.3819721115457689  0.5018138780266198 T T T
  0.0487777310405416  0.5252113805191428  0.5013380867644385 T T T
  0.0490666729829075  0.6682847579424255  0.5014531309061224 T T T
  0.0488061269957980  0.8111926726141599  0.5022816799124658 T T T
  0.0481904598172016  0.9537307686597084  0.5026232272412849 T T T
  0.1905905725499551  0.0962305317377480  0.5030887597798671 T T T
  0.1897214991031113  0.2386297033502337  0.5050732328665780 T T T
  0.1883255661372812  0.3805660989702865  0.5067222018596738 T T T
  0.1912347834820127  0.5247619925911785  0.5048032575131882 T T T
  0.1915536497034379  0.6683123754206824  0.5018208689009781 T T T
  0.1914056941001785  0.8112514121532139  0.5000835424102560 T T T
  0.1911816198767466  0.9538862037125814  0.5008677127359743 T T T
  0.3337505784482553  0.0967356095487656  0.5012881573247617 T T T
  0.3340084096387809  0.2389065348415981  0.5051358546115249 T T T
  0.3297283970114179  0.3797700805675430  0.5139570951021947 T T T
  0.3280476522739875  0.5206728613794200  0.5139544252244798 T T T
  0.3354889485255140  0.6697219335727697  0.5052755516051720 T T T
  0.3338981198355512  0.8114035393745225  0.4999766653023356 T T T
  0.3338004898391001  0.9541202224913264  0.4988583363072684 T T T
  0.4767721358071095  0.0971296770168817  0.4990824957361608 T T T
  0.4759172911304516  0.2395181930233548  0.5010929454037881 T T T
  0.4761076552506668  0.8125868626433896  0.5011138431824322 T T T
  0.4767974074673267  0.9550829900281992  0.4981442152468549 T T T
  0.6195558178637810  0.0974471803002201  0.4981214139894933 T T T
  0.6198431702231705  0.2398585565305349  0.4999869707225921 T T T
  0.6217029799809853  0.3811778678323061  0.5021433177519220 T T T
  0.6203989219387077  0.8154421569950773  0.5042063815320096 T T T
  0.6197877296304642  0.9553839769209868  0.4995580413002780 T T T
  0.7624608110674693  0.0971389050287836  0.4991044621296476 T T T
  0.7625746050742135  0.2396401838812939  0.4991924624748177 T T T
  0.7628939176963340  0.3823638313941433  0.5023035284809307 T T T
  0.7633220715630316  0.5262950690065407  0.5081828505605646 T T T
  0.7656120500078567  0.6681148912760309  0.5137580217773153 T T T
  0.7611712666993417  0.8093278270552194  0.5099513135059681 T T T
  0.7621155078308794  0.9539646601447210  0.5031526568908723 T T T
  0.9045476175678356  0.0960276381227051  0.5012020762193041 T T T
  0.9048382878245484  0.2393320344104131  0.4997970983021034 T T T
  0.9053007679622164  0.3824603644029256  0.5005373288859658 T T T
  0.9061454655589362  0.5255258078887443  0.5025052851205221 T T T
  0.9069013229332028  0.6683795149438220  0.5053721227053429 T T T
  0.9061651143665824  0.8113275905646370  0.5061238264897252 T T T
  0.9046685178324210  0.9529914564761368  0.5038518059841041 T T T
  0.4629583761476545  0.3563986682441881  0.5004919331159885 T T T
  0.4020302508010358  0.4179621175815198  0.5186470223032620 T T T
  0.6466045154105080  0.5404504592276993  0.5180911654883957 T T T
  0.5859104876848490  0.4178585312094525  0.4999628849007539 T T T
  0.5834586469424354  0.7435423041155708  0.5055519100285375 T T T
  0.4654954089814693  0.6848111758942105  0.5065544920010631 T T T
  0.5121902024345963  0.5427139453777411  0.4184680317941857 T T T
  0.4790183757594737  0.4663399608565373  0.3497215424318467 T T T
  0.4195343602243715  0.5592491272657393  0.5207584594861308 T T T
  0.6293823905754671  0.6642575642068217  0.5244371393460100 T T T
  0.5242277909502160  0.4971061684447273  0.3953361829999977 T T F
