C4                                      
    1.000000000000000     
    17.2710380553999983    0.0000000000000000    0.0000000000000000
    -8.6355190276999991   14.9571577057000002    0.0000000000000000
     0.0000000000000000    0.0000000000000000   15.0000000000000000
   C    H    N 
    84     4     4
Direct
 -0.0004496138279154 -0.0002634815932436  0.2500000055444566
  0.0001865972320965  0.1429690594043780  0.2500000324501574
  0.0006013184366731  0.2859479877746527  0.2500000355112725
  0.0002209225223491  0.4286233887728753  0.2500000229614232
 -0.0003301515186935  0.5711655926098232  0.2500000155106540
 -0.0004594957452721  0.7138340719937100  0.2500000161912397
 -0.0004960555690099  0.8569644971985646  0.2500000025855720
  0.1430580043180648  0.0002777084808206  0.2499999926985377
  0.1435789999268088  0.1434085355194097  0.2500000145946163
  0.1440461430988398  0.2860747972211847  0.2500000152235258
  0.1440589023594470  0.4292921919279601  0.2500000029753663
  0.1436611405807942  0.5715718979993183  0.2499999995424769
  0.1430856340588653  0.7141313498150434  0.2499999890322205
  0.1426498461400987  0.8569966725974774  0.2499999932637202
  0.2857580259028367 -0.0001637212546711  0.2499999981592861
  0.2866775868900951  0.1430311152459446  0.2499999935740740
  0.2887673332263067  0.2878508807925106  0.2500000091678047
  0.2871870534552738  0.4293319743295319  0.2499999856079770
  0.2887892105210230  0.5723916651887321  0.2499999906045258
  0.2867429435490549  0.7151909072820497  0.2500000031391205
  0.2857614442957235  0.8573898015514396  0.2500000117830093
  0.4287960671216380  0.0001567540114791  0.2500000034980722
  0.4290557941416838  0.1438874111907803  0.2499999705969504
  0.4290609307569761  0.8566547792298931  0.2500000322099202
  0.5711349532217921 -0.0003560479849286  0.2500000065639002
  0.5711818582958923  0.1429861921804566  0.2499999583824720
  0.5733278767289516  0.2895585116821594  0.2499999529760566
  0.5732853926927997  0.8552322974571104  0.2500000290957319
  0.7135804564744321 -0.0002794206018471  0.2499999967714782
  0.7140969767549509  0.1427468323557286  0.2499999826717521
  0.7135478144727404  0.2851478603419697  0.2499999600185140
  0.7096415261110751  0.4243418947156635  0.2499999846380009
  0.7144249491103555  0.5711516246458370  0.2499999856361575
  0.7143483680126059  0.7143539849099745  0.2499999653312180
  0.7094703723795475  0.8564362505116427  0.2499999892546249
  0.8564044514301133 -0.0003585249593360  0.2499999990185030
  0.8569728772921251  0.1427585187685499  0.2500000158725565
  0.8569477230140637  0.2854974446049455  0.2500000154756414
  0.8564689433234046  0.4280689152046940  0.2500000044360792
  0.8555354744976283  0.5703558312236385  0.2500000208581666
  0.8565712164999596  0.7139141525355875  0.2500000246006785
  0.8553652553153520  0.8563558667461534  0.2499999997394602
  0.0479403073507649  0.0953922525754700  0.2500000193943503
  0.0482179716689510  0.2382039293157625  0.2500000357474647
  0.0482002855712027  0.3813494874656614  0.2500000246330403
  0.0480255641744769  0.5239422539296636  0.2500000100954337
  0.0474864758315325  0.6665276506970887  0.2500000066974368
  0.0470738799254594  0.8091845909145721  0.2500000032542716
  0.0474116267363448  0.9521957176170577  0.2499999958421572
  0.1910265043487157  0.0954544612691579  0.2499999996177021
  0.1921933850603473  0.2387805595811140  0.2500000153181796
  0.1912088803994488  0.3812878942314563  0.2499999941943137
  0.1922086255305906  0.5247539685426739  0.2499999959188502
  0.1910841389415767  0.6669880250763383  0.2499999925343991
  0.1905521507702663  0.8095780064682548  0.2499999934279744
  0.1905430822478219  0.9523085169927791  0.2499999935878586
  0.3338438909410614  0.0954262743096164  0.2499999853630319
  0.3379623031057092  0.2386661005478968  0.2500000026108442
  0.3333536029195794  0.3808677636761094  0.2499999981867961
  0.3333849601719139  0.5239763841752459  0.2499999785234263
  0.3379806038689753  0.6707647925615823  0.2500000066465557
  0.3338624907214365  0.8099765228770540  0.2500000186858011
  0.3333236606511998  0.9523789045499333  0.2500000104160657
  0.4762888066614170  0.0955514094665619  0.2499999719064664
  0.4742045315466243  0.2399888199019470  0.2499999669132051
  0.4741903615877573  0.8056642033331578  0.2500000418830938
  0.4762456053501427  0.9522135186707956  0.2500000199062773
  0.6185959906970661  0.0950097549114404  0.2499999794850389
  0.6183683094942897  0.2385259626086415  0.2499999452353699
  0.6183519967344244  0.9512786451621079  0.2500000085569367
  0.7616970591786288  0.0953216632247413  0.2499999970198247
  0.7616294591084634  0.2377428909892806  0.2499999816859058
  0.7608150171351993  0.3798856966800382  0.2499999768961711
  0.7590092343204939  0.5227164370459239  0.2500000027222427
  0.7605786754957846  0.6658529359665250  0.2499999917955607
  0.7587805214488013  0.8073453421424145  0.2499999828349485
  0.7607246356145859  0.9520815779421126  0.2499999896066094
  0.9045273649059853  0.0948297357891318  0.2500000188829448
  0.9049130717777725  0.2380968387067234  0.2500000290929307
  0.9045399546733210  0.3809765733516535  0.2500000220888116
  0.9040266710288890  0.5235163065064021  0.2500000164370501
  0.9037287211740814  0.6658499942861725  0.2500000292359407
  0.9036401119491209  0.8091452412141082  0.2500000149655209
  0.9038857928541022  0.9517132761764360  0.2500000011993792
  0.4062854546666444  0.4166380265097093  0.2499999890416307
  0.4063198473311113  0.5610660091349964  0.2499999721578615
  0.6414131055611650  0.6784302974938624  0.2499999490377467
  0.6414923307398450  0.5340239886914647  0.2499999663747631
  0.4280361355545266  0.2841239469174140  0.2499999951115547
  0.4280520285432076  0.7153716330526712  0.2500000330922341
  0.6195687316473311  0.3798577169347129  0.2499999797404593
  0.6194125863625111  0.8110277640815431  0.2500000186305970
 
  0.00000000E+00  0.00000000E+00  0.00000000E+00
  0.00000000E+00  0.00000000E+00  0.00000000E+00
  0.00000000E+00  0.00000000E+00  0.00000000E+00
  0.00000000E+00  0.00000000E+00  0.00000000E+00
  0.00000000E+00  0.00000000E+00  0.00000000E+00
  0.00000000E+00  0.00000000E+00  0.00000000E+00
  0.00000000E+00  0.00000000E+00  0.00000000E+00
  0.00000000E+00  0.00000000E+00  0.00000000E+00
  0.00000000E+00  0.00000000E+00  0.00000000E+00
  0.00000000E+00  0.00000000E+00  0.00000000E+00
  0.00000000E+00  0.00000000E+00  0.00000000E+00
  0.00000000E+00  0.00000000E+00  0.00000000E+00
  0.00000000E+00  0.00000000E+00  0.00000000E+00
  0.00000000E+00  0.00000000E+00  0.00000000E+00
  0.00000000E+00  0.00000000E+00  0.00000000E+00
  0.00000000E+00  0.00000000E+00  0.00000000E+00
  0.00000000E+00  0.00000000E+00  0.00000000E+00
  0.00000000E+00  0.00000000E+00  0.00000000E+00
  0.00000000E+00  0.00000000E+00  0.00000000E+00
  0.00000000E+00  0.00000000E+00  0.00000000E+00
  0.00000000E+00  0.00000000E+00  0.00000000E+00
  0.00000000E+00  0.00000000E+00  0.00000000E+00
  0.00000000E+00  0.00000000E+00  0.00000000E+00
  0.00000000E+00  0.00000000E+00  0.00000000E+00
  0.00000000E+00  0.00000000E+00  0.00000000E+00
  0.00000000E+00  0.00000000E+00  0.00000000E+00
  0.00000000E+00  0.00000000E+00  0.00000000E+00
  0.00000000E+00  0.00000000E+00  0.00000000E+00
  0.00000000E+00  0.00000000E+00  0.00000000E+00
  0.00000000E+00  0.00000000E+00  0.00000000E+00
  0.00000000E+00  0.00000000E+00  0.00000000E+00
  0.00000000E+00  0.00000000E+00  0.00000000E+00
  0.00000000E+00  0.00000000E+00  0.00000000E+00
  0.00000000E+00  0.00000000E+00  0.00000000E+00
  0.00000000E+00  0.00000000E+00  0.00000000E+00
  0.00000000E+00  0.00000000E+00  0.00000000E+00
  0.00000000E+00  0.00000000E+00  0.00000000E+00
  0.00000000E+00  0.00000000E+00  0.00000000E+00
  0.00000000E+00  0.00000000E+00  0.00000000E+00
  0.00000000E+00  0.00000000E+00  0.00000000E+00
  0.00000000E+00  0.00000000E+00  0.00000000E+00
  0.00000000E+00  0.00000000E+00  0.00000000E+00
  0.00000000E+00  0.00000000E+00  0.00000000E+00
  0.00000000E+00  0.00000000E+00  0.00000000E+00
  0.00000000E+00  0.00000000E+00  0.00000000E+00
  0.00000000E+00  0.00000000E+00  0.00000000E+00
  0.00000000E+00  0.00000000E+00  0.00000000E+00
  0.00000000E+00  0.00000000E+00  0.00000000E+00
  0.00000000E+00  0.00000000E+00  0.00000000E+00
  0.00000000E+00  0.00000000E+00  0.00000000E+00
  0.00000000E+00  0.00000000E+00  0.00000000E+00
  0.00000000E+00  0.00000000E+00  0.00000000E+00
  0.00000000E+00  0.00000000E+00  0.00000000E+00
  0.00000000E+00  0.00000000E+00  0.00000000E+00
  0.00000000E+00  0.00000000E+00  0.00000000E+00
  0.00000000E+00  0.00000000E+00  0.00000000E+00
  0.00000000E+00  0.00000000E+00  0.00000000E+00
  0.00000000E+00  0.00000000E+00  0.00000000E+00
  0.00000000E+00  0.00000000E+00  0.00000000E+00
  0.00000000E+00  0.00000000E+00  0.00000000E+00
  0.00000000E+00  0.00000000E+00  0.00000000E+00
  0.00000000E+00  0.00000000E+00  0.00000000E+00
  0.00000000E+00  0.00000000E+00  0.00000000E+00
  0.00000000E+00  0.00000000E+00  0.00000000E+00
  0.00000000E+00  0.00000000E+00  0.00000000E+00
  0.00000000E+00  0.00000000E+00  0.00000000E+00
  0.00000000E+00  0.00000000E+00  0.00000000E+00
  0.00000000E+00  0.00000000E+00  0.00000000E+00
  0.00000000E+00  0.00000000E+00  0.00000000E+00
  0.00000000E+00  0.00000000E+00  0.00000000E+00
  0.00000000E+00  0.00000000E+00  0.00000000E+00
  0.00000000E+00  0.00000000E+00  0.00000000E+00
  0.00000000E+00  0.00000000E+00  0.00000000E+00
  0.00000000E+00  0.00000000E+00  0.00000000E+00
  0.00000000E+00  0.00000000E+00  0.00000000E+00
  0.00000000E+00  0.00000000E+00  0.00000000E+00
  0.00000000E+00  0.00000000E+00  0.00000000E+00
  0.00000000E+00  0.00000000E+00  0.00000000E+00
  0.00000000E+00  0.00000000E+00  0.00000000E+00
  0.00000000E+00  0.00000000E+00  0.00000000E+00
  0.00000000E+00  0.00000000E+00  0.00000000E+00
  0.00000000E+00  0.00000000E+00  0.00000000E+00
  0.00000000E+00  0.00000000E+00  0.00000000E+00
  0.00000000E+00  0.00000000E+00  0.00000000E+00
  0.00000000E+00  0.00000000E+00  0.00000000E+00
  0.00000000E+00  0.00000000E+00  0.00000000E+00
  0.00000000E+00  0.00000000E+00  0.00000000E+00
  0.00000000E+00  0.00000000E+00  0.00000000E+00
  0.00000000E+00  0.00000000E+00  0.00000000E+00
  0.00000000E+00  0.00000000E+00  0.00000000E+00
  0.00000000E+00  0.00000000E+00  0.00000000E+00
  0.00000000E+00  0.00000000E+00  0.00000000E+00
