C4                                      
    1.000000000000000     
    17.2710380553999983    0.0000000000000000    0.0000000000000000
    -8.6355190276999991   14.9571577057000002    0.0000000000000000
     0.0000000000000000    0.0000000000000000   15.0000000000000000
   C    F    N 
    84     4     4
Direct
  0.0013353814391584  0.0015254450492302  0.2500002680599910
 -0.0004092802955253  0.1429124382744983  0.2500002347463278
 -0.0013530198902303  0.2851130493592515  0.2500002213632158
 -0.0014903655608842  0.4283403719798410  0.2500005663245088
 -0.0012581168430404  0.5717561519162335  0.2500004016488386
  0.0011924828397533  0.7151306232664855  0.2500004511075956
  0.0026326208694982  0.8593278324986985  0.2500000440894599
  0.1435087129813755  0.0003050504758512  0.2500001947961243
  0.1441643585631318  0.1450257088782389  0.2500000385104849
  0.1415286162660279  0.2860151540894930  0.2499994518584255
  0.1393399747313935  0.4286106391674208  0.2499998998405537
  0.1412824638768859  0.5712127618632155  0.2499998315439021
  0.1432450758519960  0.7140421817396426  0.2499998780055107
  0.1438039168513935  0.8570979975387605  0.2499996426973649
  0.2858097106992686 -0.0016062282549370  0.2500004957075773
  0.2838463178842071  0.1403092491344346  0.2499978178986746
  0.2889058521603453  0.2914803858711188  0.2499962026965656
  0.2792570669123128  0.4320970890331353  0.2500002459193986
  0.2845651538725801  0.5687457184139512  0.2499996336185840
  0.2859050896255698  0.7131335878992489  0.2500000360249298
  0.2860773695496756  0.8559499876717309  0.2499996047153598
  0.4288477365374403 -0.0027941944854261  0.2499998759638941
  0.4279936023767246  0.1392206490554716  0.2499999955639482
  0.4217450145921552  0.2730736277542508  0.2500023246962218
  0.4289214803637643  0.8538520827386732  0.2500001292645559
  0.5711801220022600 -0.0032358110922735  0.2500004590242893
  0.5714605868150348  0.1396835418718137  0.2499996414816527
  0.5721868424320288  0.2823352859049303  0.2499992644764469
  0.5734837620318761  0.8521099769068998  0.2499996815299784
  0.7135222525232456 -0.0023068232797973  0.2499995911346918
  0.7140659941330616  0.1408984703764853  0.2500005732270458
  0.7147456643493035  0.2842896483567398  0.2499979802581430
  0.7175213173248516  0.4280789258247416  0.2500011260401828
  0.7187640421509144  0.5818371152094777  0.2500002597250093
  0.7104899913655602  0.8549117005826743  0.2499978329241105
  0.8569124125659002 -0.0003764310153548  0.2499996045623825
  0.8563888031661806  0.1417423578041269  0.2499997298303329
  0.8564838235866333  0.2846846628460630  0.2500004646109912
  0.8577731039309442  0.4286650190915888  0.2499985165761622
  0.8558164609439752  0.5731085968829335  0.2499986913040131
  0.8621002148716339  0.7190528698530571  0.2500003223499780
  0.8590557590635877  0.8590971709925658  0.2499995956638870
  0.0487231284816819  0.0968625510071405  0.2500004514880176
  0.0464014850928947  0.2376988020391473  0.2500002145782472
  0.0448477448936001  0.3802957568955355  0.2500004668829080
  0.0460642335816638  0.5237271302870107  0.2500001375732307
  0.0479119359965905  0.6670181725156609  0.2500002025927922
  0.0489070064342199  0.8103415098497435  0.2500000414842949
  0.0489535274736273  0.9537402833564806  0.2500003402577521
  0.1897185028386536  0.0947262125911062  0.2499996891281029
  0.1918572840896569  0.2411585231540672  0.2499981063059686
  0.1855324329856946  0.3807637902842948  0.2499988620817475
  0.1882531287842038  0.5235968952835521  0.2500000891296038
  0.1902832673505819  0.6663124831764777  0.2499997375459426
  0.1911493612717733  0.8092001810980985  0.2499998523367751
  0.1909410662775708  0.9519834326800289  0.2499997791928735
  0.3327949107546075  0.0932951810449670  0.2499990280752338
  0.3302385295750000  0.2344811094761843  0.2499978690566465
  0.3290079036946473  0.3870443927780943  0.2499973882438875
  0.3365735011463524  0.6680508983601382  0.2500001465946229
  0.3337498056411402  0.8079258642118594  0.2499999156598927
  0.3335272137530347  0.9506516505867828  0.2499997377774593
  0.4762654199663756  0.0920903978342878  0.2499999138675530
  0.4755058665892913  0.2339531388887757  0.2500011218558994
  0.4736180998571551  0.8022444133813611  0.2500000977272755
  0.4763275402238115  0.9493213720747858  0.2500004376796989
  0.6187647134883812  0.0921144863545445  0.2500005031163757
  0.6196322977267255  0.2350873309484591  0.2499980012550419
  0.6260342384724111  0.3751834565993288  0.2500012046529116
  0.6183325186002132  0.9484637703096285  0.2499994155991264
  0.7613969205080625  0.0934886149556820  0.2499996641557546
  0.7616502249906796  0.2363373335970993  0.2500000251770805
  0.7637383639042624  0.3801840528932290  0.2499977163420377
  0.7588339912377972  0.5264079122011813  0.2499988705736083
  0.7684148846993623  0.6766331597190476  0.2499998169714921
  0.7627516288273661  0.8078119971098798  0.2499993376944524
  0.7612206668683236  0.9506616435148758  0.2499973517572166
  0.9042100011049116  0.0944451766063780  0.2499988271407490
  0.9037129195491915  0.2370085459360996  0.2500000768813984
  0.9039595114488230  0.3804297790182286  0.2500001389058025
  0.9033468969251968  0.5245432070779218  0.2499996056380712
  0.9061199045448763  0.6683059379809642  0.2500002431094361
  0.9080806682448155  0.8130702143574655  0.2500003348585607
  0.9060537365139776  0.9537142899886025  0.2499991788295243
  0.4573009383011612  0.3598231869011385  0.2500054728895487
  0.4154726168385126  0.4517555243259193  0.2500010477549471
  0.6324001074047695  0.5601851570632532  0.2500029392126353
  0.5906963082118867  0.4265477468989646  0.2500178294210935
  0.4266460606109034  0.7119251812529044  0.2500000787822406
  0.7204374139991490  0.7193720011722133  0.2499999990431157
  0.3270935937317730  0.5228169094236924  0.2499982857753151
  0.6204331785513308  0.8087238888076853  0.2499995859647267
 
  0.00000000E+00  0.00000000E+00  0.00000000E+00
  0.00000000E+00  0.00000000E+00  0.00000000E+00
  0.00000000E+00  0.00000000E+00  0.00000000E+00
  0.00000000E+00  0.00000000E+00  0.00000000E+00
  0.00000000E+00  0.00000000E+00  0.00000000E+00
  0.00000000E+00  0.00000000E+00  0.00000000E+00
  0.00000000E+00  0.00000000E+00  0.00000000E+00
  0.00000000E+00  0.00000000E+00  0.00000000E+00
  0.00000000E+00  0.00000000E+00  0.00000000E+00
  0.00000000E+00  0.00000000E+00  0.00000000E+00
  0.00000000E+00  0.00000000E+00  0.00000000E+00
  0.00000000E+00  0.00000000E+00  0.00000000E+00
  0.00000000E+00  0.00000000E+00  0.00000000E+00
  0.00000000E+00  0.00000000E+00  0.00000000E+00
  0.00000000E+00  0.00000000E+00  0.00000000E+00
  0.00000000E+00  0.00000000E+00  0.00000000E+00
  0.00000000E+00  0.00000000E+00  0.00000000E+00
  0.00000000E+00  0.00000000E+00  0.00000000E+00
  0.00000000E+00  0.00000000E+00  0.00000000E+00
  0.00000000E+00  0.00000000E+00  0.00000000E+00
  0.00000000E+00  0.00000000E+00  0.00000000E+00
  0.00000000E+00  0.00000000E+00  0.00000000E+00
  0.00000000E+00  0.00000000E+00  0.00000000E+00
  0.00000000E+00  0.00000000E+00  0.00000000E+00
  0.00000000E+00  0.00000000E+00  0.00000000E+00
  0.00000000E+00  0.00000000E+00  0.00000000E+00
  0.00000000E+00  0.00000000E+00  0.00000000E+00
  0.00000000E+00  0.00000000E+00  0.00000000E+00
  0.00000000E+00  0.00000000E+00  0.00000000E+00
  0.00000000E+00  0.00000000E+00  0.00000000E+00
  0.00000000E+00  0.00000000E+00  0.00000000E+00
  0.00000000E+00  0.00000000E+00  0.00000000E+00
  0.00000000E+00  0.00000000E+00  0.00000000E+00
  0.00000000E+00  0.00000000E+00  0.00000000E+00
  0.00000000E+00  0.00000000E+00  0.00000000E+00
  0.00000000E+00  0.00000000E+00  0.00000000E+00
  0.00000000E+00  0.00000000E+00  0.00000000E+00
  0.00000000E+00  0.00000000E+00  0.00000000E+00
  0.00000000E+00  0.00000000E+00  0.00000000E+00
  0.00000000E+00  0.00000000E+00  0.00000000E+00
  0.00000000E+00  0.00000000E+00  0.00000000E+00
  0.00000000E+00  0.00000000E+00  0.00000000E+00
  0.00000000E+00  0.00000000E+00  0.00000000E+00
  0.00000000E+00  0.00000000E+00  0.00000000E+00
  0.00000000E+00  0.00000000E+00  0.00000000E+00
  0.00000000E+00  0.00000000E+00  0.00000000E+00
  0.00000000E+00  0.00000000E+00  0.00000000E+00
  0.00000000E+00  0.00000000E+00  0.00000000E+00
  0.00000000E+00  0.00000000E+00  0.00000000E+00
  0.00000000E+00  0.00000000E+00  0.00000000E+00
  0.00000000E+00  0.00000000E+00  0.00000000E+00
  0.00000000E+00  0.00000000E+00  0.00000000E+00
  0.00000000E+00  0.00000000E+00  0.00000000E+00
  0.00000000E+00  0.00000000E+00  0.00000000E+00
  0.00000000E+00  0.00000000E+00  0.00000000E+00
  0.00000000E+00  0.00000000E+00  0.00000000E+00
  0.00000000E+00  0.00000000E+00  0.00000000E+00
  0.00000000E+00  0.00000000E+00  0.00000000E+00
  0.00000000E+00  0.00000000E+00  0.00000000E+00
  0.00000000E+00  0.00000000E+00  0.00000000E+00
  0.00000000E+00  0.00000000E+00  0.00000000E+00
  0.00000000E+00  0.00000000E+00  0.00000000E+00
  0.00000000E+00  0.00000000E+00  0.00000000E+00
  0.00000000E+00  0.00000000E+00  0.00000000E+00
  0.00000000E+00  0.00000000E+00  0.00000000E+00
  0.00000000E+00  0.00000000E+00  0.00000000E+00
  0.00000000E+00  0.00000000E+00  0.00000000E+00
  0.00000000E+00  0.00000000E+00  0.00000000E+00
  0.00000000E+00  0.00000000E+00  0.00000000E+00
  0.00000000E+00  0.00000000E+00  0.00000000E+00
  0.00000000E+00  0.00000000E+00  0.00000000E+00
  0.00000000E+00  0.00000000E+00  0.00000000E+00
  0.00000000E+00  0.00000000E+00  0.00000000E+00
  0.00000000E+00  0.00000000E+00  0.00000000E+00
  0.00000000E+00  0.00000000E+00  0.00000000E+00
  0.00000000E+00  0.00000000E+00  0.00000000E+00
  0.00000000E+00  0.00000000E+00  0.00000000E+00
  0.00000000E+00  0.00000000E+00  0.00000000E+00
  0.00000000E+00  0.00000000E+00  0.00000000E+00
  0.00000000E+00  0.00000000E+00  0.00000000E+00
  0.00000000E+00  0.00000000E+00  0.00000000E+00
  0.00000000E+00  0.00000000E+00  0.00000000E+00
  0.00000000E+00  0.00000000E+00  0.00000000E+00
  0.00000000E+00  0.00000000E+00  0.00000000E+00
  0.00000000E+00  0.00000000E+00  0.00000000E+00
  0.00000000E+00  0.00000000E+00  0.00000000E+00
  0.00000000E+00  0.00000000E+00  0.00000000E+00
  0.00000000E+00  0.00000000E+00  0.00000000E+00
  0.00000000E+00  0.00000000E+00  0.00000000E+00
  0.00000000E+00  0.00000000E+00  0.00000000E+00
  0.00000000E+00  0.00000000E+00  0.00000000E+00
  0.00000000E+00  0.00000000E+00  0.00000000E+00
