C4                                      
    1.000000000000000     
    17.2710380553999983    0.0000000000000000    0.0000000000000000
    -8.6355190276999991   14.9571577057000002    0.0000000000000000
     0.0000000000000000    0.0000000000000000   15.0000000000000000
   C    F    N 
    82     2     6
Direct
 -0.0011472097545040 -0.0008265017850784  0.2499968920080660
 -0.0015213023841720  0.1419784228171901  0.2500008221370493
 -0.0013321346611919  0.2852349143650831  0.2500004216701073
 -0.0003269185417945  0.4286400034745995  0.2499988491919970
  0.0008544440751120  0.5718307480200757  0.2499985640162215
  0.0018765516211987  0.7150054078583593  0.2499983855472693
  0.0002551091932012  0.8574277333554996  0.2499961551921153
  0.1435202294001611  0.0013703653231789  0.2499992699070261
  0.1423122008874896  0.1436602061243730  0.2499997566310885
  0.1405432495669020  0.2852680933270075  0.2500016874940532
  0.1417179879382773  0.4285095577308088  0.2500008137902202
  0.1441135188360979  0.5715065359751010  0.2499999916232140
  0.1446641984377512  0.7147950203793890  0.2500006262636306
  0.1440577227650602  0.8583274996609042  0.2499988851559481
  0.2868395031637029  0.0021930866216816  0.2499976911725692
  0.2865915443901230  0.1463750828862870  0.2499961431530855
  0.2851148792472578  0.2926413617918443  0.2500002921803098
  0.2833384662347559  0.4282387362531569  0.2500010449672521
  0.2884571641774739  0.5671618043567701  0.2500000332806336
  0.2875797413642274  0.7138090957433251  0.2500002361041852
  0.2866783506157026  0.8580091249122974  0.2500012091272807
  0.4291910154737552  0.0010169097855460  0.2500010817048202
  0.4299767226323072  0.1460894639786716  0.2499994923587814
  0.4290921383505333  0.8563635178716997  0.2499997092490565
  0.5710282845703754 -0.0003714202960166  0.2500007806870916
  0.5716395631900740  0.1436340879848056  0.2499987948893152
  0.5761208170252241  0.2909577974116042  0.2499992479269381
  0.5728874784829673  0.8548659370774810  0.2499998743766434
  0.7129994909484345 -0.0011938100143408  0.2499990234661464
  0.7138299389727585  0.1427104492831446  0.2499994839598768
  0.7147887726983667  0.2864186653550028  0.2499982147011425
  0.7114032545754126  0.4267365812029816  0.2499959487590459
  0.7084641790571186  0.8546510762456525  0.2500000522066377
  0.8554361426467669 -0.0015420775277360  0.2499979233946355
  0.8559212035892594  0.1420129046271848  0.2500001654580472
  0.8565610925417947  0.2855295865716732  0.2499992994058229
  0.8572440910175214  0.4289841087737002  0.2499979262240150
  0.8577260781753407  0.5718121034258190  0.2499947615229801
  0.8586023946117544  0.7140273225445599  0.2499929765721230
  0.8546548917842909  0.8548533992244861  0.2499959934880761
  0.0466502645366294  0.0948549475622094  0.2499994435187609
  0.0454472551282111  0.2370903894476541  0.2500012756507328
  0.0463739491058601  0.3806166166711460  0.2499999450549839
  0.0484837352976546  0.5240977768218328  0.2499984734208165
  0.0491962582879614  0.6672530017654121  0.2500004355578551
  0.0486334174905884  0.8102991170195099  0.2499992670313951
  0.0477696889113162  0.9526948037529315  0.2499976654011920
  0.1908300321223488  0.0967845461492039  0.2499976410670884
  0.1889566720960516  0.2391379522600342  0.2500008518894164
  0.1877905510198137  0.3802299141321290  0.2500017424223972
  0.1915411212433498  0.5236293501483834  0.2500004390020540
  0.1920926899082560  0.6669443151952384  0.2499993437850453
  0.1916648661515977  0.8103906908158608  0.2499999561004922
  0.1915423494537214  0.9538615036888322  0.2499972957134831
  0.3344548681099439  0.0984068346734120  0.2499975092631799
  0.3339422109329436  0.2426802719524270  0.2499996826475229
  0.3387932825279387  0.6682675391591544  0.2499979663592827
  0.3341582452930224  0.8093084033444319  0.2500006217689762
  0.3339167638731729  0.9535966797797505  0.2500000671892939
  0.4766267649829096  0.0966894918802647  0.2499986996927686
  0.4784268111355522  0.2421345550802081  0.2500006747020672
  0.4738570842906280  0.8048563142441222  0.2500000704568693
  0.4761983202264441  0.9523410479220961  0.2500007551738874
  0.6184914610118932  0.0950845285951558  0.2500000444110039
  0.6200732218516775  0.2393382408972970  0.2499984214584820
  0.6179170067132082  0.9508690866503074  0.2500003307481098
  0.7609059965161766  0.0946210262452286  0.2499992557256927
  0.7617103217610707  0.2380045264398359  0.2499991023670093
  0.7620173837392757  0.3816253460495148  0.2499974150707148
  0.7610997441339660  0.5265264567584033  0.2499953465461493
  0.7632029177392730  0.6623850696855094  0.2499995425480803
  0.7576136732382839  0.8049847753052179  0.2500010612812777
  0.7599532774317431  0.9507089222373033  0.2499981906724796
  0.9031355232722482  0.0937493234195814  0.2499981412857185
  0.9035882585837524  0.2374688625681859  0.2499998389708512
  0.9043199641905484  0.3811629552559554  0.2499989326414328
  0.9053930235505456  0.5243380231683412  0.2499969516891673
  0.9063308037609445  0.6669238680543065  0.2499946408305456
  0.9043874827439272  0.8091262786626189  0.2499929415593083
  0.9030119227702783  0.9505740952861057  0.2499950997383164
  0.4280378178792296  0.2863334226754566  0.2500077323887612
  0.7156051481755378  0.7108554927272789  0.2500129963645535
  0.4724149204080940  0.3753020988748141  0.2500243490979729
  0.6267657873934961  0.6610682418621791  0.2500443891678159
  0.4286067916791926  0.7144023317620716  0.2499998942520858
  0.7167510100169839  0.5714791020270701  0.2500000844410318
  0.3289032720700988  0.3826340750392770  0.2499996721871457
  0.3311505983349108  0.5201993882547491  0.2500004600989761
  0.6220600481239270  0.3813941417713642  0.2499974548637377
  0.6185461454580887  0.8104396394709866  0.2499993657594989
 
  0.00000000E+00  0.00000000E+00  0.00000000E+00
  0.00000000E+00  0.00000000E+00  0.00000000E+00
  0.00000000E+00  0.00000000E+00  0.00000000E+00
  0.00000000E+00  0.00000000E+00  0.00000000E+00
  0.00000000E+00  0.00000000E+00  0.00000000E+00
  0.00000000E+00  0.00000000E+00  0.00000000E+00
  0.00000000E+00  0.00000000E+00  0.00000000E+00
  0.00000000E+00  0.00000000E+00  0.00000000E+00
  0.00000000E+00  0.00000000E+00  0.00000000E+00
  0.00000000E+00  0.00000000E+00  0.00000000E+00
  0.00000000E+00  0.00000000E+00  0.00000000E+00
  0.00000000E+00  0.00000000E+00  0.00000000E+00
  0.00000000E+00  0.00000000E+00  0.00000000E+00
  0.00000000E+00  0.00000000E+00  0.00000000E+00
  0.00000000E+00  0.00000000E+00  0.00000000E+00
  0.00000000E+00  0.00000000E+00  0.00000000E+00
  0.00000000E+00  0.00000000E+00  0.00000000E+00
  0.00000000E+00  0.00000000E+00  0.00000000E+00
  0.00000000E+00  0.00000000E+00  0.00000000E+00
  0.00000000E+00  0.00000000E+00  0.00000000E+00
  0.00000000E+00  0.00000000E+00  0.00000000E+00
  0.00000000E+00  0.00000000E+00  0.00000000E+00
  0.00000000E+00  0.00000000E+00  0.00000000E+00
  0.00000000E+00  0.00000000E+00  0.00000000E+00
  0.00000000E+00  0.00000000E+00  0.00000000E+00
  0.00000000E+00  0.00000000E+00  0.00000000E+00
  0.00000000E+00  0.00000000E+00  0.00000000E+00
  0.00000000E+00  0.00000000E+00  0.00000000E+00
  0.00000000E+00  0.00000000E+00  0.00000000E+00
  0.00000000E+00  0.00000000E+00  0.00000000E+00
  0.00000000E+00  0.00000000E+00  0.00000000E+00
  0.00000000E+00  0.00000000E+00  0.00000000E+00
  0.00000000E+00  0.00000000E+00  0.00000000E+00
  0.00000000E+00  0.00000000E+00  0.00000000E+00
  0.00000000E+00  0.00000000E+00  0.00000000E+00
  0.00000000E+00  0.00000000E+00  0.00000000E+00
  0.00000000E+00  0.00000000E+00  0.00000000E+00
  0.00000000E+00  0.00000000E+00  0.00000000E+00
  0.00000000E+00  0.00000000E+00  0.00000000E+00
  0.00000000E+00  0.00000000E+00  0.00000000E+00
  0.00000000E+00  0.00000000E+00  0.00000000E+00
  0.00000000E+00  0.00000000E+00  0.00000000E+00
  0.00000000E+00  0.00000000E+00  0.00000000E+00
  0.00000000E+00  0.00000000E+00  0.00000000E+00
  0.00000000E+00  0.00000000E+00  0.00000000E+00
  0.00000000E+00  0.00000000E+00  0.00000000E+00
  0.00000000E+00  0.00000000E+00  0.00000000E+00
  0.00000000E+00  0.00000000E+00  0.00000000E+00
  0.00000000E+00  0.00000000E+00  0.00000000E+00
  0.00000000E+00  0.00000000E+00  0.00000000E+00
  0.00000000E+00  0.00000000E+00  0.00000000E+00
  0.00000000E+00  0.00000000E+00  0.00000000E+00
  0.00000000E+00  0.00000000E+00  0.00000000E+00
  0.00000000E+00  0.00000000E+00  0.00000000E+00
  0.00000000E+00  0.00000000E+00  0.00000000E+00
  0.00000000E+00  0.00000000E+00  0.00000000E+00
  0.00000000E+00  0.00000000E+00  0.00000000E+00
  0.00000000E+00  0.00000000E+00  0.00000000E+00
  0.00000000E+00  0.00000000E+00  0.00000000E+00
  0.00000000E+00  0.00000000E+00  0.00000000E+00
  0.00000000E+00  0.00000000E+00  0.00000000E+00
  0.00000000E+00  0.00000000E+00  0.00000000E+00
  0.00000000E+00  0.00000000E+00  0.00000000E+00
  0.00000000E+00  0.00000000E+00  0.00000000E+00
  0.00000000E+00  0.00000000E+00  0.00000000E+00
  0.00000000E+00  0.00000000E+00  0.00000000E+00
  0.00000000E+00  0.00000000E+00  0.00000000E+00
  0.00000000E+00  0.00000000E+00  0.00000000E+00
  0.00000000E+00  0.00000000E+00  0.00000000E+00
  0.00000000E+00  0.00000000E+00  0.00000000E+00
  0.00000000E+00  0.00000000E+00  0.00000000E+00
  0.00000000E+00  0.00000000E+00  0.00000000E+00
  0.00000000E+00  0.00000000E+00  0.00000000E+00
  0.00000000E+00  0.00000000E+00  0.00000000E+00
  0.00000000E+00  0.00000000E+00  0.00000000E+00
  0.00000000E+00  0.00000000E+00  0.00000000E+00
  0.00000000E+00  0.00000000E+00  0.00000000E+00
  0.00000000E+00  0.00000000E+00  0.00000000E+00
  0.00000000E+00  0.00000000E+00  0.00000000E+00
  0.00000000E+00  0.00000000E+00  0.00000000E+00
  0.00000000E+00  0.00000000E+00  0.00000000E+00
  0.00000000E+00  0.00000000E+00  0.00000000E+00
  0.00000000E+00  0.00000000E+00  0.00000000E+00
  0.00000000E+00  0.00000000E+00  0.00000000E+00
  0.00000000E+00  0.00000000E+00  0.00000000E+00
  0.00000000E+00  0.00000000E+00  0.00000000E+00
  0.00000000E+00  0.00000000E+00  0.00000000E+00
  0.00000000E+00  0.00000000E+00  0.00000000E+00
  0.00000000E+00  0.00000000E+00  0.00000000E+00
  0.00000000E+00  0.00000000E+00  0.00000000E+00
