C    N    H    O                        
   1.00000000000000     
    17.2710380553999983    0.0000000000000000    0.0000000000000000
    -8.6355190276999991   14.9571577057000002    0.0000000000000000
     0.0000000000000000    0.0000000000000000   15.0000000000000000
  C/253f7b50bb8d  N/e053789ff3a6  H/030f79b5d3ab  O/818f92134a0a
              80               8               2               1
Selective dynamics
Direct
  0.9997728966207224  0.0018716790599904  0.5026080498532731   T   T   T
  0.9989687539897280  0.1441528392180368  0.5026317525253122   T   T   T
  0.9987686204964459  0.2871756944884597  0.5027712786625500   T   T   T
  0.9990152927221672  0.4304500050188200  0.5031237129358607   T   T   T
  0.9997843179484029  0.5735747293201490  0.5033876315794026   T   T   T
  0.0012702010360745  0.7168745705660914  0.5029009235706703   T   T   T
  0.0012065961633938  0.8599993864620264  0.5025789001812340   T   T   T
  0.1441159742906743  0.0036009919680759  0.5017754233426746   T   T   T
  0.1435342461868593  0.1462283688072571  0.5021103540719343   T   T   T
  0.1418746305950532  0.2873485124260563  0.5022813355806809   T   T   T
  0.1419074469654285  0.4301364832040533  0.5025285148334342   T   T   T
  0.1435033227158938  0.5729254706681167  0.5027300964162698   T   T   T
  0.1441324742670068  0.7161516035978918  0.5024317058563955   T   T   T
  0.1441460429026749  0.8598878067903694  0.5018744741829553   T   T   T
  0.2867401474408450  0.0031443451250869  0.5020273766010236   T   T   T
  0.2873222921460464  0.1478639587326214  0.5022658750441737   T   T   T
  0.2883251354041873  0.2951757535560735  0.5029411153388575   T   T   T
  0.2846199465131441  0.4303281933189351  0.5031878331681595   T   T   T
  0.2883647284735776  0.5686566939971609  0.5031772784828502   T   T   T
  0.2873606850176841  0.7151024818932176  0.5027332776540320   T   T   T
  0.2867313134001481  0.8592469455971420  0.5022530602935625   T   T   T
  0.4292983542226573  0.0025453313710187  0.5031863454414411   T   T   T
  0.4293641118937793  0.1473791924174956  0.5034149841248743   T   T   T
  0.4293310693616711  0.8577716684809115  0.5033571230857057   T   T   T
  0.5711694520394486  0.0012576741657973  0.5041102927744343   T   T   T
  0.5711942841696647  0.1457238286683268  0.5044179706242288   T   T   T
  0.5734375456632407  0.2934595468739787  0.5051385277435783   T   T   T
  0.5734343794790148  0.8558045954063623  0.5047104685342856   T   T   T
  0.7132320504384829  1.0001007406948459  0.5042774888184086   T   T   T
  0.7135951769873757  0.1446678190540658  0.5043828978585315   T   T   T
  0.7132640653446370  0.2888794851922230  0.5049701694344010   T   T   T
  0.7090376180657650  0.4298486503249880  0.5057296838931582   T   T   T
  0.7087783661697020  0.8547237926423090  0.5053321763137940   T   T   T
  0.8557864994859055  0.0003624240547510  0.5037633133398971   T   T   T
  0.8558729932922572  0.1439531702487244  0.5035847559551263   T   T   T
  0.8558883506121423  0.2875525685193124  0.5039872270910841   T   T   T
  0.8558839881288361  0.4311206069156806  0.5044133028873254   T   T   T
  0.8562222212600802  0.5742713152557537  0.5046047696564480   T   T   T
  0.8586535950481318  0.7171256562192532  0.5042229047266349   T   T   T
  0.8561894285830987  0.8575962966137097  0.5040199063665057   T   T   T
  0.0477119733885981  0.0975033639005916  0.5023511836232111   T   T   T
  0.0462265541774184  0.2392964915308950  0.5024138001652680   T   T   T
  0.0462446560846212  0.3825145081896549  0.5026791198843646   T   T   T
  0.0476868368857586  0.5258532749437304  0.5030133247404170   T   T   T
  0.0484921070369342  0.6689677335698465  0.5028500022799804   T   T   T
  0.0487226682101018  0.8121935753336171  0.5023251233224109   T   T   T
  0.0484502679098777  0.9551393643225103  0.5022182899095590   T   T   T
  0.1916522883544130  0.0989721266027649  0.5019049111024922   T   T   T
  0.1913387438399890  0.2418009981586246  0.5023277177085581   T   T   T
  0.1887694413149118  0.3821519230991920  0.5024997647614741   T   T   T
  0.1913021104554709  0.5251545524796780  0.5026808536937871   T   T   T
  0.1916786668714459  0.6683192051740856  0.5025854903196395   T   T   T
  0.1916603768783088  0.8118549943251899  0.5020469950455173   T   T   T
  0.1916543421259679  0.9554383993478757  0.5017193870295680   T   T   T
  0.3342979772743999  0.0993587657749873  0.5024597808863710   T   T   T
  0.3385483513886883  0.2445672748353540  0.5030874324098374   T   T   T
  0.3387012021635105  0.6696966430597209  0.5032706017783146   T   T   T
  0.3342784571503604  0.8105878867307155  0.5027450198015675   T   T   T
  0.3339563390603094  0.9548047779588710  0.5023950204612719   T   T   T
  0.4763793959790583  0.0983082743694156  0.5037031071587309   T   T   T
  0.4741510084157097  0.2438032389217238  0.5042534016759197   T   T   T
  0.4740896341223189  0.8061372967601312  0.5040206991517489   T   T   T
  0.4763364457842494  0.9538468457513481  0.5035604512771700   T   T   T
  0.6182561759110368  0.0970220296432559  0.5043614972762471   T   T   T
  0.6182122700737395  0.2418217355775137  0.5048504232371146   T   T   T
  0.6181962065577693  0.9522037793890434  0.5043399259339638   T   T   T
  0.7608025582392953  0.0963100777356680  0.5040839468018079   T   T   T
  0.7608127631275923  0.2402187433168707  0.5046192166789477   T   T   T
  0.7602147245685207  0.3843648603004691  0.5051307258465398   T   T   T
  0.7592729988430439  0.5306748943176096  0.5057688297629126   T   T   T
  0.7627904224390097  0.6693969859069687  0.5058313870005073   T   T   T
  0.7591084095259656  0.8040179435450460  0.5054459593353765   T   T   T
  0.7600963914702473  0.9514830347286252  0.5044460707040216   T   T   T
  0.9033277552184951  0.0957318478158164  0.5032431481974005   T   T   T
  0.9033667072708546  0.2395039743471063  0.5034023056304391   T   T   T
  0.9033905310101256  0.3832438627047275  0.5038388754032389   T   T   T
  0.9039865980259775  0.5264781396661882  0.5041221847779850   T   T   T
  0.9055939936674798  0.6692666794114025  0.5038387353037731   T   T   T
  0.9055395715913808  0.8119486434544507  0.5035976664165969   T   T   T
  0.9039589473490084  0.9531330051925542  0.5033639989881603   T   T   T
  0.4283991141494518  0.2885422072963624  0.5042921162010414   T   T   T
  0.4284659119314204  0.7157281701180273  0.5040102699650374   T   T   T
  0.7160725444703144  0.5772869776018378  0.5066339729284958   T   T   T
  0.7160805880629731  0.7143881061515170  0.5067210611811186   T   T   T
  0.3314157569030285  0.3850087018181026  0.5035448695900429   T   T   T
  0.3313705897493244  0.5220156955001083  0.5037579221552591   T   T   T
  0.6191654745001708  0.3839549017046701  0.5059427524269351   T   T   T
  0.6190183050446539  0.8109905699350305  0.5054836723501308   T   T   T
  0.4698517313264554  0.4723882826588421  0.4865090759820324   T   T   T
  0.5746312401848614  0.5212400108170042  0.4880882953181631   T   T   T
  0.5238563689523155  0.5254092241157493  0.4651120309999968   T   T   F
 
  0.00000000E+00  0.00000000E+00  0.00000000E+00
  0.00000000E+00  0.00000000E+00  0.00000000E+00
  0.00000000E+00  0.00000000E+00  0.00000000E+00
  0.00000000E+00  0.00000000E+00  0.00000000E+00
  0.00000000E+00  0.00000000E+00  0.00000000E+00
  0.00000000E+00  0.00000000E+00  0.00000000E+00
  0.00000000E+00  0.00000000E+00  0.00000000E+00
  0.00000000E+00  0.00000000E+00  0.00000000E+00
  0.00000000E+00  0.00000000E+00  0.00000000E+00
  0.00000000E+00  0.00000000E+00  0.00000000E+00
  0.00000000E+00  0.00000000E+00  0.00000000E+00
  0.00000000E+00  0.00000000E+00  0.00000000E+00
  0.00000000E+00  0.00000000E+00  0.00000000E+00
  0.00000000E+00  0.00000000E+00  0.00000000E+00
  0.00000000E+00  0.00000000E+00  0.00000000E+00
  0.00000000E+00  0.00000000E+00  0.00000000E+00
  0.00000000E+00  0.00000000E+00  0.00000000E+00
  0.00000000E+00  0.00000000E+00  0.00000000E+00
  0.00000000E+00  0.00000000E+00  0.00000000E+00
  0.00000000E+00  0.00000000E+00  0.00000000E+00
  0.00000000E+00  0.00000000E+00  0.00000000E+00
  0.00000000E+00  0.00000000E+00  0.00000000E+00
  0.00000000E+00  0.00000000E+00  0.00000000E+00
  0.00000000E+00  0.00000000E+00  0.00000000E+00
  0.00000000E+00  0.00000000E+00  0.00000000E+00
  0.00000000E+00  0.00000000E+00  0.00000000E+00
  0.00000000E+00  0.00000000E+00  0.00000000E+00
  0.00000000E+00  0.00000000E+00  0.00000000E+00
  0.00000000E+00  0.00000000E+00  0.00000000E+00
  0.00000000E+00  0.00000000E+00  0.00000000E+00
  0.00000000E+00  0.00000000E+00  0.00000000E+00
  0.00000000E+00  0.00000000E+00  0.00000000E+00
  0.00000000E+00  0.00000000E+00  0.00000000E+00
  0.00000000E+00  0.00000000E+00  0.00000000E+00
  0.00000000E+00  0.00000000E+00  0.00000000E+00
  0.00000000E+00  0.00000000E+00  0.00000000E+00
  0.00000000E+00  0.00000000E+00  0.00000000E+00
  0.00000000E+00  0.00000000E+00  0.00000000E+00
  0.00000000E+00  0.00000000E+00  0.00000000E+00
  0.00000000E+00  0.00000000E+00  0.00000000E+00
  0.00000000E+00  0.00000000E+00  0.00000000E+00
  0.00000000E+00  0.00000000E+00  0.00000000E+00
  0.00000000E+00  0.00000000E+00  0.00000000E+00
  0.00000000E+00  0.00000000E+00  0.00000000E+00
  0.00000000E+00  0.00000000E+00  0.00000000E+00
  0.00000000E+00  0.00000000E+00  0.00000000E+00
  0.00000000E+00  0.00000000E+00  0.00000000E+00
  0.00000000E+00  0.00000000E+00  0.00000000E+00
  0.00000000E+00  0.00000000E+00  0.00000000E+00
  0.00000000E+00  0.00000000E+00  0.00000000E+00
  0.00000000E+00  0.00000000E+00  0.00000000E+00
  0.00000000E+00  0.00000000E+00  0.00000000E+00
  0.00000000E+00  0.00000000E+00  0.00000000E+00
  0.00000000E+00  0.00000000E+00  0.00000000E+00
  0.00000000E+00  0.00000000E+00  0.00000000E+00
  0.00000000E+00  0.00000000E+00  0.00000000E+00
  0.00000000E+00  0.00000000E+00  0.00000000E+00
  0.00000000E+00  0.00000000E+00  0.00000000E+00
  0.00000000E+00  0.00000000E+00  0.00000000E+00
  0.00000000E+00  0.00000000E+00  0.00000000E+00
  0.00000000E+00  0.00000000E+00  0.00000000E+00
  0.00000000E+00  0.00000000E+00  0.00000000E+00
  0.00000000E+00  0.00000000E+00  0.00000000E+00
  0.00000000E+00  0.00000000E+00  0.00000000E+00
  0.00000000E+00  0.00000000E+00  0.00000000E+00
  0.00000000E+00  0.00000000E+00  0.00000000E+00
  0.00000000E+00  0.00000000E+00  0.00000000E+00
  0.00000000E+00  0.00000000E+00  0.00000000E+00
  0.00000000E+00  0.00000000E+00  0.00000000E+00
  0.00000000E+00  0.00000000E+00  0.00000000E+00
  0.00000000E+00  0.00000000E+00  0.00000000E+00
  0.00000000E+00  0.00000000E+00  0.00000000E+00
  0.00000000E+00  0.00000000E+00  0.00000000E+00
  0.00000000E+00  0.00000000E+00  0.00000000E+00
  0.00000000E+00  0.00000000E+00  0.00000000E+00
  0.00000000E+00  0.00000000E+00  0.00000000E+00
  0.00000000E+00  0.00000000E+00  0.00000000E+00
  0.00000000E+00  0.00000000E+00  0.00000000E+00
  0.00000000E+00  0.00000000E+00  0.00000000E+00
  0.00000000E+00  0.00000000E+00  0.00000000E+00
  0.00000000E+00  0.00000000E+00  0.00000000E+00
  0.00000000E+00  0.00000000E+00  0.00000000E+00
  0.00000000E+00  0.00000000E+00  0.00000000E+00
  0.00000000E+00  0.00000000E+00  0.00000000E+00
  0.00000000E+00  0.00000000E+00  0.00000000E+00
  0.00000000E+00  0.00000000E+00  0.00000000E+00
  0.00000000E+00  0.00000000E+00  0.00000000E+00
  0.00000000E+00  0.00000000E+00  0.00000000E+00
  0.00000000E+00  0.00000000E+00  0.00000000E+00
  0.00000000E+00  0.00000000E+00  0.00000000E+00
  0.00000000E+00  0.00000000E+00  0.00000000E+00
