C4                                      
    1.000000000000000     
    17.2710380553999983    0.0000000000000000    0.0000000000000000
    -8.6355190276999991   14.9571577057000002    0.0000000000000000
     0.0000000000000000    0.0000000000000000   15.0000000000000000
   C    H    F 
    88     6     2
Direct
 -0.0000717365282007 -0.0003816462843335  0.2542135022416803
 -0.0006338905222481  0.1421336015613688  0.2488222973963219
 -0.0007198092307438  0.2850211896273512  0.2454612854199767
 -0.0003694032406462  0.4280930627776733  0.2463257638842781
  0.0002185114143135  0.5711845924543739  0.2512225100333275
  0.0011690118184462  0.7143365239310243  0.2553616909028629
  0.0009942920293548  0.8574271784435745  0.2565724695383714
  0.1431357078346415  0.0000515754285556  0.2558883965226369
  0.1425556861111366  0.1426502318054779  0.2526002802849591
  0.1416157264875857  0.2846777116940144  0.2478972183852568
  0.1418179636723102  0.4278626342869665  0.2443051210451979
  0.1428148640384766  0.5708750617735603  0.2469330104777904
  0.1433931889588108  0.7139884627607677  0.2545027426353109
  0.1434104484427848  0.8570574284694247  0.2567456997824971
  0.2856508779765741 -0.0004425635117742  0.2555109287596038
  0.2855053242883832  0.1423460072957691  0.2541288410420391
  0.2854956021660763  0.2866216055896837  0.2518570557668371
  0.2833463064696242  0.4271288413983875  0.2470795362836412
  0.2857936547864601  0.5698623093766093  0.2385644566603762
  0.2857949408931282  0.7142489624065761  0.2481201593799624
  0.2856602902978508  0.8570495400842120  0.2546275731110032
  0.4285994660866782 -0.0001613499356642  0.2527103568488829
  0.4284211950691540  0.1422588757958311  0.2519408994352222
  0.4266389860544736  0.2817720383937188  0.2517999369320742
  0.4254862842806519  0.7186760924087701  0.2242395030741836
  0.4281044115728718  0.8572292646305969  0.2506003476273059
  0.5712990617482550  0.0000248059061525  0.2463543522375449
  0.5713638065694151  0.1424139641435508  0.2472443640440757
  0.5721663565872910  0.2856282721460743  0.2484747340363548
  0.5715834123832532  0.8578851508079361  0.2521600571807239
  0.7142990737137155 -0.0002046882239365  0.2479414579256558
  0.7142815980175592  0.1425886569537098  0.2443093701428965
  0.7142398459002482  0.2853859368360214  0.2449792280679181
  0.7138406000331299  0.4274614100358445  0.2470922714432822
  0.7181599966262402  0.5735483153809512  0.2482600719491308
  0.7177469127686138  0.7148022737922668  0.2552022904649556
  0.7140266201199642  0.8570373142245091  0.2615890709679305
  0.8568430803023397 -0.0006698318842047  0.2504320727469534
  0.8567683280208773  0.1422985697796967  0.2458280350524659
  0.8567836405149680  0.2851326726278531  0.2446034380671645
  0.8572127530662818  0.4281802115956722  0.2468314679340363
  0.8578430181346399  0.5715512359002827  0.2510153630828124
  0.8594552436977593  0.7149829688261722  0.2551335968951411
  0.8575458549891516  0.8567561433479040  0.2578028361909623
  0.0473725952404157  0.0948546619014270  0.2517931938935701
  0.0463953751410560  0.2370511036673526  0.2471335804783044
  0.0466215357676157  0.3802393929157663  0.2452331077154493
  0.0476560906995310  0.5234065002959194  0.2483676818999621
  0.0482253133435325  0.6664835789828722  0.2541752244220334
  0.0483171531078235  0.8095098874942368  0.2565407245630310
  0.0479431985407234  0.9523421735745765  0.2560364144213674
  0.1902943943231621  0.0948660251383569  0.2546188811852350
  0.1896788387364151  0.2376827610914219  0.2507650758396908
  0.1881651119929538  0.3794380262079569  0.2458105047718510
  0.1899171619587574  0.5230247105590783  0.2426942391637414
  0.1905666990727984  0.6663354585193471  0.2507917523946697
  0.1907930845918031  0.8093679145361706  0.2558526345882638
  0.1907081508153586  0.9521897598687850  0.2563704564974623
  0.3332960061805095  0.0949333678329036  0.2540773946832939
  0.3337423090638184  0.2375983191199945  0.2529340406524191
  0.3295313354058069  0.3793651961359757  0.2507382518724623
  0.3298881651367305  0.5210524752937271  0.2432901673213514
  0.3331297006504753  0.6668748794678964  0.2362342986548508
  0.3331550915691792  0.8094003475561261  0.2510760113151633
  0.3331983927744187  0.9520778251974867  0.2549596199150282
  0.4762447287378561  0.0948087424410328  0.2506328949291026
  0.4754657265809017  0.2373116780918970  0.2508250341181646
  0.4757394869588022  0.8100140347008745  0.2438653085516281
  0.4762197196908470  0.9524992455380723  0.2511608041936295
  0.6188842093733624  0.0949730826759894  0.2452592560434170
  0.6191761442863145  0.2376234771765141  0.2465140769611102
  0.6209966399205031  0.3788516602684268  0.2485164551578198
  0.6214002733217697  0.8163426595251210  0.2715920418478497
  0.6193517290988578  0.9528300358309933  0.2468339154622120
  0.7618156354575799  0.0950121135700774  0.2456759738764486
  0.7618267988401547  0.2375926507115698  0.2442062552909007
  0.7620493437788849  0.3804943310745697  0.2458651877041350
  0.7620676654051165  0.5246787292924326  0.2485405218728414
  0.7642991868014306  0.6674500855541047  0.2525209226454376
  0.7616029726427453  0.8076221719025739  0.2602762499374155
  0.7615557287522760  0.9518986782600741  0.2512533890129523
  0.9041396187238621  0.0942561730656518  0.2477973224158385
  0.9041659847237711  0.2374087918225603  0.2450214728237807
  0.9044161038913572  0.3805729326791034  0.2457858480244725
  0.9050499301529640  0.5236771355116211  0.2498536106248867
  0.9059672843810895  0.6666921658117976  0.2539937799869840
  0.9057720983758506  0.8097897339178901  0.2568250381927035
  0.9047266728974143  0.9517485392164854  0.2546557059167824
  0.4627235864153150  0.3542651996210350  0.2507335677467063
  0.4022644337672007  0.4186241898966910  0.2519379461120913
  0.4023289431388711  0.5546653048565812  0.2447823429981504
  0.6453338040995503  0.6759347590837628  0.2522655742165772
  0.6454863084948808  0.5401635519562672  0.2453456147993624
  0.5849590942137565  0.4153048677830009  0.2506851333160116
  0.5761958988543261  0.7322528924205901  0.3065898896884914
  0.4694630113011909  0.6793436914518703  0.1874099473812938
 
  0.00000000E+00  0.00000000E+00  0.00000000E+00
  0.00000000E+00  0.00000000E+00  0.00000000E+00
  0.00000000E+00  0.00000000E+00  0.00000000E+00
  0.00000000E+00  0.00000000E+00  0.00000000E+00
  0.00000000E+00  0.00000000E+00  0.00000000E+00
  0.00000000E+00  0.00000000E+00  0.00000000E+00
  0.00000000E+00  0.00000000E+00  0.00000000E+00
  0.00000000E+00  0.00000000E+00  0.00000000E+00
  0.00000000E+00  0.00000000E+00  0.00000000E+00
  0.00000000E+00  0.00000000E+00  0.00000000E+00
  0.00000000E+00  0.00000000E+00  0.00000000E+00
  0.00000000E+00  0.00000000E+00  0.00000000E+00
  0.00000000E+00  0.00000000E+00  0.00000000E+00
  0.00000000E+00  0.00000000E+00  0.00000000E+00
  0.00000000E+00  0.00000000E+00  0.00000000E+00
  0.00000000E+00  0.00000000E+00  0.00000000E+00
  0.00000000E+00  0.00000000E+00  0.00000000E+00
  0.00000000E+00  0.00000000E+00  0.00000000E+00
  0.00000000E+00  0.00000000E+00  0.00000000E+00
  0.00000000E+00  0.00000000E+00  0.00000000E+00
  0.00000000E+00  0.00000000E+00  0.00000000E+00
  0.00000000E+00  0.00000000E+00  0.00000000E+00
  0.00000000E+00  0.00000000E+00  0.00000000E+00
  0.00000000E+00  0.00000000E+00  0.00000000E+00
  0.00000000E+00  0.00000000E+00  0.00000000E+00
  0.00000000E+00  0.00000000E+00  0.00000000E+00
  0.00000000E+00  0.00000000E+00  0.00000000E+00
  0.00000000E+00  0.00000000E+00  0.00000000E+00
  0.00000000E+00  0.00000000E+00  0.00000000E+00
  0.00000000E+00  0.00000000E+00  0.00000000E+00
  0.00000000E+00  0.00000000E+00  0.00000000E+00
  0.00000000E+00  0.00000000E+00  0.00000000E+00
  0.00000000E+00  0.00000000E+00  0.00000000E+00
  0.00000000E+00  0.00000000E+00  0.00000000E+00
  0.00000000E+00  0.00000000E+00  0.00000000E+00
  0.00000000E+00  0.00000000E+00  0.00000000E+00
  0.00000000E+00  0.00000000E+00  0.00000000E+00
  0.00000000E+00  0.00000000E+00  0.00000000E+00
  0.00000000E+00  0.00000000E+00  0.00000000E+00
  0.00000000E+00  0.00000000E+00  0.00000000E+00
  0.00000000E+00  0.00000000E+00  0.00000000E+00
  0.00000000E+00  0.00000000E+00  0.00000000E+00
  0.00000000E+00  0.00000000E+00  0.00000000E+00
  0.00000000E+00  0.00000000E+00  0.00000000E+00
  0.00000000E+00  0.00000000E+00  0.00000000E+00
  0.00000000E+00  0.00000000E+00  0.00000000E+00
  0.00000000E+00  0.00000000E+00  0.00000000E+00
  0.00000000E+00  0.00000000E+00  0.00000000E+00
  0.00000000E+00  0.00000000E+00  0.00000000E+00
  0.00000000E+00  0.00000000E+00  0.00000000E+00
  0.00000000E+00  0.00000000E+00  0.00000000E+00
  0.00000000E+00  0.00000000E+00  0.00000000E+00
  0.00000000E+00  0.00000000E+00  0.00000000E+00
  0.00000000E+00  0.00000000E+00  0.00000000E+00
  0.00000000E+00  0.00000000E+00  0.00000000E+00
  0.00000000E+00  0.00000000E+00  0.00000000E+00
  0.00000000E+00  0.00000000E+00  0.00000000E+00
  0.00000000E+00  0.00000000E+00  0.00000000E+00
  0.00000000E+00  0.00000000E+00  0.00000000E+00
  0.00000000E+00  0.00000000E+00  0.00000000E+00
  0.00000000E+00  0.00000000E+00  0.00000000E+00
  0.00000000E+00  0.00000000E+00  0.00000000E+00
  0.00000000E+00  0.00000000E+00  0.00000000E+00
  0.00000000E+00  0.00000000E+00  0.00000000E+00
  0.00000000E+00  0.00000000E+00  0.00000000E+00
  0.00000000E+00  0.00000000E+00  0.00000000E+00
  0.00000000E+00  0.00000000E+00  0.00000000E+00
  0.00000000E+00  0.00000000E+00  0.00000000E+00
  0.00000000E+00  0.00000000E+00  0.00000000E+00
  0.00000000E+00  0.00000000E+00  0.00000000E+00
  0.00000000E+00  0.00000000E+00  0.00000000E+00
  0.00000000E+00  0.00000000E+00  0.00000000E+00
  0.00000000E+00  0.00000000E+00  0.00000000E+00
  0.00000000E+00  0.00000000E+00  0.00000000E+00
  0.00000000E+00  0.00000000E+00  0.00000000E+00
  0.00000000E+00  0.00000000E+00  0.00000000E+00
  0.00000000E+00  0.00000000E+00  0.00000000E+00
  0.00000000E+00  0.00000000E+00  0.00000000E+00
  0.00000000E+00  0.00000000E+00  0.00000000E+00
  0.00000000E+00  0.00000000E+00  0.00000000E+00
  0.00000000E+00  0.00000000E+00  0.00000000E+00
  0.00000000E+00  0.00000000E+00  0.00000000E+00
  0.00000000E+00  0.00000000E+00  0.00000000E+00
  0.00000000E+00  0.00000000E+00  0.00000000E+00
  0.00000000E+00  0.00000000E+00  0.00000000E+00
  0.00000000E+00  0.00000000E+00  0.00000000E+00
  0.00000000E+00  0.00000000E+00  0.00000000E+00
  0.00000000E+00  0.00000000E+00  0.00000000E+00
  0.00000000E+00  0.00000000E+00  0.00000000E+00
  0.00000000E+00  0.00000000E+00  0.00000000E+00
  0.00000000E+00  0.00000000E+00  0.00000000E+00
  0.00000000E+00  0.00000000E+00  0.00000000E+00
  0.00000000E+00  0.00000000E+00  0.00000000E+00
  0.00000000E+00  0.00000000E+00  0.00000000E+00
  0.00000000E+00  0.00000000E+00  0.00000000E+00
  0.00000000E+00  0.00000000E+00  0.00000000E+00
