C    F    N    H    O                   
    1.000000000000000     
    17.2710380553999983    0.0000000000000000    0.0000000000000000
    -8.6355190276999991   14.9571577057000002    0.0000000000000000
     0.0000000000000000    0.0000000000000000   15.0000000000000000
   C    F    N    H    O 
    82     2     6     2     1
Selective dynamics
Direct
  0.9987915031473007  0.0015878302123748  0.5005459177371451   T   T   T
  0.9989491862100799  0.1445785158715053  0.5003577500947343   T   T   T
  0.9997920743724590  0.2882390750948877  0.5003275505030700   T   T   T
  0.0003955887896880  0.4313615364562518  0.5005543226559114   T   T   T
  0.0009871464582693  0.5742437269805439  0.5007942348496141   T   T   T
  0.0013534745735852  0.7171678302494275  0.5007880923818445   T   T   T
  0.9997780727998048  0.8596467860437136  0.5007450220819741   T   T   T
  0.1430204415324684  0.0031247359877495  0.5005025534643083   T   T   T
  0.1424991612981663  0.1453291774303954  0.5001328435189882   T   T   T
  0.1419843575923088  0.2871945548887405  0.5000985262993335   T   T   T
  0.1437195766445835  0.4313943274804559  0.5003291936756692   T   T   T
  0.1447680670434628  0.5741621282012733  0.5006983203399816   T   T   T
  0.1443021347079822  0.7171100059461075  0.5008607054756913   T   T   T
  0.1434467031110342  0.8602181577260042  0.5007295678507027   T   T   T
  0.2861531254888396  0.0035055611682661  0.5003034239041652   T   T   T
  0.2864204808435280  0.1468608699911594  0.5000253594866900   T   T   T
  0.2870246059500068  0.2919807920226672  0.4997875651716051   T   T   T
  0.2848754305927116  0.4263379563241581  0.4999875446359470   T   T   T
  0.2899717975370025  0.5743447737454981  0.5005178913895786   T   T   T
  0.2875806421369173  0.7177734537198717  0.5007436980540541   T   T   T
  0.2864646881707550  0.8606779736209872  0.5006123635161420   T   T   T
  0.4291494300531928  0.0040069784983259  0.5002446487351402   T   T   T
  0.4291474481569868  0.1478502045015793  0.5000199987918572   T   T   T
  0.4293837085987265  0.8603045007822304  0.5005447633228920   T   T   T
  0.5713212755186243  0.0034483480730648  0.5003484133367604   T   T   T
  0.5713411905533329  0.1470148093528336  0.5002045172387913   T   T   T
  0.5735891366099449  0.2939516914066468  0.5000258904774889   T   T   T
  0.5733558051167185  0.8590239596254183  0.5007073272019833   T   T   T
  0.7134891189314116  0.0025274584672494  0.5005365879134254   T   T   T
  0.7140510373481734  0.1462041107312345  0.5004094181885919   T   T   T
  0.7138320773800780  0.2894012662822120  0.5003535333652822   T   T   T
  0.7103302953896208  0.4295731501348185  0.5003175563462782   T   T   T
  0.7085644073312389  0.8579985809960732  0.5008176837055037   T   T   T
  0.8556597715473550  0.0014999734065086  0.5006201313661410   T   T   T
  0.8564697276096684  0.1453052781098055  0.5004180896318047   T   T   T
  0.8567954308712732  0.2885944935206866  0.5004763173139117   T   T   T
  0.8570743757321551  0.4316169278944202  0.5005621772601190   T   T   T
  0.8575237884163376  0.5741754374456216  0.5006389512061860   T   T   T
  0.8582875901286892  0.7165311088067670  0.5006803556898951   T   T   T
  0.8545876884549977  0.8576941393337481  0.5006884596715803   T   T   T
  0.0468926605014518  0.0971644574681685  0.5003420677610018   T   T   T
  0.0465211780282427  0.2397152359073658  0.5002569342232289   T   T   T
  0.0479383257558304  0.3837390973392963  0.5003984574348425   T   T   T
  0.0489968051076863  0.5266897268531575  0.5006914242945352   T   T   T
  0.0488887470762761  0.6695765230818341  0.5008479884512290   T   T   T
  0.0480103765913961  0.8123576627871831  0.5007933561564473   T   T   T
  0.0473372747030639  0.9547906999966870  0.5006184456126953   T   T   T
  0.1907032600006054  0.0982949237425543  0.5002137637176909   T   T   T
  0.1904740255554341  0.2405826246621012  0.4999838096265979   T   T   T
  0.1895205952353217  0.3820929151081744  0.5001214603750634   T   T   T
  0.1931162160581718  0.5269007736418885  0.5005314788327712   T   T   T
  0.1921615117057575  0.6697012071627984  0.5007969774376878   T   T   T
  0.1913855736257060  0.8126934870437011  0.5007613881834239   T   T   T
  0.1909779231448618  0.9555852050169776  0.5005335827513793   T   T   T
  0.3339145228872856  0.0993018384462995  0.5000964761443975   T   T   T
  0.3375180458035799  0.2428722817389521  0.4997858042983837   T   T   T
  0.3392080045569832  0.6732794507187762  0.5006720684036736   T   T   T
  0.3343609724663550  0.8128869458348462  0.5006873055473876   T   T   T
  0.3337436887871301  0.9559454739790307  0.5003432727622530   T   T   T
  0.4764487797844867  0.0994681053218488  0.5001360452786388   T   T   T
  0.4740556426225493  0.2440577480318696  0.4998717479450713   T   T   T
  0.4744279353122271  0.8094968124586822  0.5006803161614009   T   T   T
  0.4764769676110497  0.9559592445428856  0.5003352886306565   T   T   T
  0.6186621417195067  0.0988491128188126  0.5003052558959306   T   T   T
  0.6186228736717552  0.2427718167695803  0.5001941282731853   T   T   T
  0.6184300001087017  0.9549065017399416  0.5004975469050195   T   T   T
  0.7613698136700429  0.0982282380236952  0.5004484119574082   T   T   T
  0.7616161403443699  0.2413632429784442  0.5004418138605411   T   T   T
  0.7612713677208038  0.3844670932242250  0.5004269122030904   T   T   T
  0.7609212308486895  0.5291864249639073  0.5005277971389672   T   T   T
  0.7629206982347202  0.6651838125265520  0.5008062114328060   T   T   T
  0.7577435157810217  0.8082249787323518  0.5008512056167493   T   T   T
  0.7601998442096870  0.9541277652354395  0.5006675414448259   T   T   T
  0.9035247182121602  0.0967660890057912  0.5004959719496680   T   T   T
  0.9043337875182305  0.2407563490755132  0.5004117017226467   T   T   T
  0.9046915713686200  0.3840488292758151  0.5005491281478017   T   T   T
  0.9053874250604693  0.5268230094690316  0.5006589860976707   T   T   T
  0.9058837902964281  0.6692317247377306  0.5006775770933226   T   T   T
  0.9040483405688376  0.8115959454477961  0.5007055902169548   T   T   T
  0.9030037950918967  0.9532968422064326  0.5006302228114937   T   T   T
  0.7154070925300731  0.7140726433149054  0.5010811356762894   T   T   T
  0.3321366339027328  0.5225015889569773  0.5001812183713336   T   T   T
  0.6271444940945478  0.6657751241127601  0.5016700947379328   T   T   T
  0.4207153178279674  0.5624022064784807  0.5000140969302537   T   T   T
  0.4274847560961961  0.2878048691173850  0.4996930631116508   T   T   T
  0.4291186121700905  0.7193538775924473  0.5007266566714630   T   T   T
  0.7170068922598480  0.5744774969153422  0.5007057942659259   T   T   T
  0.3308918132820735  0.3813854978238095  0.4997405743420988   T   T   T
  0.6201752120052673  0.3844440006612934  0.5000715454868145   T   T   T
  0.6186538727701019  0.8141963028004867  0.5008657763630264   T   T   T
  0.4617024206082552  0.4408281093271370  0.4992734106701238   T   T   T
  0.5583945809802771  0.4568017286194229  0.4996019364838557   T   T   T
  0.5244184259286386  0.4881765098080850  0.5000000000000000   T   T   F
 
  0.00000000E+00  0.00000000E+00  0.00000000E+00
  0.00000000E+00  0.00000000E+00  0.00000000E+00
  0.00000000E+00  0.00000000E+00  0.00000000E+00
  0.00000000E+00  0.00000000E+00  0.00000000E+00
  0.00000000E+00  0.00000000E+00  0.00000000E+00
  0.00000000E+00  0.00000000E+00  0.00000000E+00
  0.00000000E+00  0.00000000E+00  0.00000000E+00
  0.00000000E+00  0.00000000E+00  0.00000000E+00
  0.00000000E+00  0.00000000E+00  0.00000000E+00
  0.00000000E+00  0.00000000E+00  0.00000000E+00
  0.00000000E+00  0.00000000E+00  0.00000000E+00
  0.00000000E+00  0.00000000E+00  0.00000000E+00
  0.00000000E+00  0.00000000E+00  0.00000000E+00
  0.00000000E+00  0.00000000E+00  0.00000000E+00
  0.00000000E+00  0.00000000E+00  0.00000000E+00
  0.00000000E+00  0.00000000E+00  0.00000000E+00
  0.00000000E+00  0.00000000E+00  0.00000000E+00
  0.00000000E+00  0.00000000E+00  0.00000000E+00
  0.00000000E+00  0.00000000E+00  0.00000000E+00
  0.00000000E+00  0.00000000E+00  0.00000000E+00
  0.00000000E+00  0.00000000E+00  0.00000000E+00
  0.00000000E+00  0.00000000E+00  0.00000000E+00
  0.00000000E+00  0.00000000E+00  0.00000000E+00
  0.00000000E+00  0.00000000E+00  0.00000000E+00
  0.00000000E+00  0.00000000E+00  0.00000000E+00
  0.00000000E+00  0.00000000E+00  0.00000000E+00
  0.00000000E+00  0.00000000E+00  0.00000000E+00
  0.00000000E+00  0.00000000E+00  0.00000000E+00
  0.00000000E+00  0.00000000E+00  0.00000000E+00
  0.00000000E+00  0.00000000E+00  0.00000000E+00
  0.00000000E+00  0.00000000E+00  0.00000000E+00
  0.00000000E+00  0.00000000E+00  0.00000000E+00
  0.00000000E+00  0.00000000E+00  0.00000000E+00
  0.00000000E+00  0.00000000E+00  0.00000000E+00
  0.00000000E+00  0.00000000E+00  0.00000000E+00
  0.00000000E+00  0.00000000E+00  0.00000000E+00
  0.00000000E+00  0.00000000E+00  0.00000000E+00
  0.00000000E+00  0.00000000E+00  0.00000000E+00
  0.00000000E+00  0.00000000E+00  0.00000000E+00
  0.00000000E+00  0.00000000E+00  0.00000000E+00
  0.00000000E+00  0.00000000E+00  0.00000000E+00
  0.00000000E+00  0.00000000E+00  0.00000000E+00
  0.00000000E+00  0.00000000E+00  0.00000000E+00
  0.00000000E+00  0.00000000E+00  0.00000000E+00
  0.00000000E+00  0.00000000E+00  0.00000000E+00
  0.00000000E+00  0.00000000E+00  0.00000000E+00
  0.00000000E+00  0.00000000E+00  0.00000000E+00
  0.00000000E+00  0.00000000E+00  0.00000000E+00
  0.00000000E+00  0.00000000E+00  0.00000000E+00
  0.00000000E+00  0.00000000E+00  0.00000000E+00
  0.00000000E+00  0.00000000E+00  0.00000000E+00
  0.00000000E+00  0.00000000E+00  0.00000000E+00
  0.00000000E+00  0.00000000E+00  0.00000000E+00
  0.00000000E+00  0.00000000E+00  0.00000000E+00
  0.00000000E+00  0.00000000E+00  0.00000000E+00
  0.00000000E+00  0.00000000E+00  0.00000000E+00
  0.00000000E+00  0.00000000E+00  0.00000000E+00
  0.00000000E+00  0.00000000E+00  0.00000000E+00
  0.00000000E+00  0.00000000E+00  0.00000000E+00
  0.00000000E+00  0.00000000E+00  0.00000000E+00
  0.00000000E+00  0.00000000E+00  0.00000000E+00
  0.00000000E+00  0.00000000E+00  0.00000000E+00
  0.00000000E+00  0.00000000E+00  0.00000000E+00
  0.00000000E+00  0.00000000E+00  0.00000000E+00
  0.00000000E+00  0.00000000E+00  0.00000000E+00
  0.00000000E+00  0.00000000E+00  0.00000000E+00
  0.00000000E+00  0.00000000E+00  0.00000000E+00
  0.00000000E+00  0.00000000E+00  0.00000000E+00
  0.00000000E+00  0.00000000E+00  0.00000000E+00
  0.00000000E+00  0.00000000E+00  0.00000000E+00
  0.00000000E+00  0.00000000E+00  0.00000000E+00
  0.00000000E+00  0.00000000E+00  0.00000000E+00
  0.00000000E+00  0.00000000E+00  0.00000000E+00
  0.00000000E+00  0.00000000E+00  0.00000000E+00
  0.00000000E+00  0.00000000E+00  0.00000000E+00
  0.00000000E+00  0.00000000E+00  0.00000000E+00
  0.00000000E+00  0.00000000E+00  0.00000000E+00
  0.00000000E+00  0.00000000E+00  0.00000000E+00
  0.00000000E+00  0.00000000E+00  0.00000000E+00
  0.00000000E+00  0.00000000E+00  0.00000000E+00
  0.00000000E+00  0.00000000E+00  0.00000000E+00
  0.00000000E+00  0.00000000E+00  0.00000000E+00
  0.00000000E+00  0.00000000E+00  0.00000000E+00
  0.00000000E+00  0.00000000E+00  0.00000000E+00
  0.00000000E+00  0.00000000E+00  0.00000000E+00
  0.00000000E+00  0.00000000E+00  0.00000000E+00
  0.00000000E+00  0.00000000E+00  0.00000000E+00
  0.00000000E+00  0.00000000E+00  0.00000000E+00
  0.00000000E+00  0.00000000E+00  0.00000000E+00
  0.00000000E+00  0.00000000E+00  0.00000000E+00
  0.00000000E+00  0.00000000E+00  0.00000000E+00
  0.00000000E+00  0.00000000E+00  0.00000000E+00
  0.00000000E+00  0.00000000E+00  0.00000000E+00
