C    F    N    H    O                   
    1.000000000000000     
    17.2710380553999983    0.0000000000000000    0.0000000000000000
    -8.6355190276999991   14.9571577057000002    0.0000000000000000
     0.0000000000000000    0.0000000000000000   15.0000000000000000
   C    F    N    H    O 
    82     2     6     2     1
Selective dynamics
Direct
  0.9987729704208105  0.0015585534052049  0.5002794256317731   T   T   T
  0.9989286137411300  0.1445546144859303  0.5001094224495481   T   T   T
  0.9997776539619363  0.2882313495190461  0.4999798946682317   T   T   T
  0.0003963915846432  0.4313578085366757  0.5000814783504336   T   T   T
  0.0009811202851885  0.5742367968383111  0.5003910414628829   T   T   T
  0.0013330239051016  0.7171571060368939  0.5006045586055619   T   T   T
  0.9997601296151475  0.8596347505566571  0.5004876061898392   T   T   T
  0.1430186210669416  0.0031249019987157  0.5001694948898892   T   T   T
  0.1424820660599262  0.1453213514280297  0.4999033250392201   T   T   T
  0.1419582164696723  0.2871850277858230  0.4997753928121634   T   T   T
  0.1437157842159161  0.4314100102101783  0.4999480351389394   T   T   T
  0.1447653079340566  0.5741805486077194  0.5003146209824384   T   T   T
  0.1442825251682367  0.7171135420538903  0.5006351781494357   T   T   T
  0.1434291171695820  0.8602130292355925  0.5005023819005946   T   T   T
  0.2861501496947556  0.0035122738649325  0.5000262502463206   T   T   T
  0.2864193287317122  0.1468654583083285  0.4997132940571049   T   T   T
  0.2869934795975075  0.2919720700361589  0.4995079303098490   T   T   T
  0.2848464615588217  0.4263169947173566  0.4995902549115739   T   T   T
  0.2899649494145310  0.5743517754095178  0.5000436512601769   T   T   T
  0.2875805271663996  0.7177944017264840  0.5004824581968184   T   T   T
  0.2864597149182530  0.8606888944036025  0.5004267275858804   T   T   T
  0.4291483006438148  0.0040248680618664  0.5000380216171826   T   T   T
  0.4291469768309392  0.1478703261746466  0.4997131008689212   T   T   T
  0.4293835557238215  0.8603150380893418  0.5004118076620842   T   T   T
  0.5713154032637973  0.0034470400706198  0.5001440175960862   T   T   T
  0.5713346017481507  0.1470231055694691  0.4998426434526917   T   T   T
  0.5735833367468202  0.2939645918507949  0.4997521728470946   T   T   T
  0.5733474044815788  0.8590118736737227  0.5004921563624770   T   T   T
  0.7134767604264108  0.0025078398999448  0.5003457626821372   T   T   T
  0.7140363890678385  0.1461848849367007  0.5000427394437096   T   T   T
  0.7138350989617115  0.2893969288705798  0.4998779687277357   T   T   T
  0.7103513421907857  0.4295663581150497  0.4999361752151118   T   T   T
  0.7085393965051944  0.8579601453282395  0.5004425350067696   T   T   T
  0.8556399798220865  0.0014775207585546  0.5003579472725698   T   T   T
  0.8564592287947955  0.1452976089680132  0.5001640276056843   T   T   T
  0.8567716150837139  0.2885803547002374  0.4999850152391641   T   T   T
  0.8570834081929360  0.4316092510887871  0.5000330732598953   T   T   T
  0.8575211820642558  0.5741554506842624  0.5002382234376664   T   T   T
  0.8582656490885008  0.7165179746515302  0.5004111001861278   T   T   T
  0.8545543324976929  0.8576644053992005  0.5004232976286984   T   T   T
  0.0468709875720630  0.0971374558142379  0.5001031838414598   T   T   T
  0.0465061826327376  0.2396975541050474  0.4999485799642770   T   T   T
  0.0479390445090132  0.3837360827806732  0.4999864294153113   T   T   T
  0.0489919271841917  0.5266856057403466  0.5002647136052273   T   T   T
  0.0488727319342025  0.6695718340199223  0.5006042746867014   T   T   T
  0.0479921000093306  0.8123502140203235  0.5005820090313251   T   T   T
  0.0473301988017363  0.9547770212258651  0.5003054419949263   T   T   T
  0.1906979712720329  0.0982937007897486  0.4999055144132404   T   T   T
  0.1904437234242736  0.2405692556377699  0.4996961989151905   T   T   T
  0.1894966106736296  0.3820842898885376  0.4997686620497676   T   T   T
  0.1931195076553368  0.5269232013435344  0.5001064652448581   T   T   T
  0.1921616354429175  0.6697243755897779  0.5004953481872089   T   T   T
  0.1913748130123193  0.8126978060219265  0.5005703853530141   T   T   T
  0.1909716359239616  0.9555828089591178  0.5002464253205614   T   T   T
  0.3339101117926120  0.0993055038991111  0.4997614323328669   T   T   T
  0.3375059790275620  0.2428754383733036  0.4995498000779250   T   T   T
  0.3392013476384498  0.6732900565150577  0.5003367574476282   T   T   T
  0.3343684898626665  0.8129037753103415  0.5005145715374218   T   T   T
  0.3337370521404316  0.9559543763391630  0.5001448407046255   T   T   T
  0.4764460465842356  0.0994814677858926  0.4998424600110840   T   T   T
  0.4740534056859546  0.2440819458318185  0.4996305841032422   T   T   T
  0.4744240140212393  0.8094988562317793  0.5004771941851681   T   T   T
  0.4764696390180283  0.9559625656852030  0.5001790661077780   T   T   T
  0.6186422544384659  0.0988391954054422  0.4999943019842309   T   T   T
  0.6186174008022648  0.2427781448476880  0.4998068361142879   T   T   T
  0.6184138046437533  0.9548916257300382  0.5003151598379898   T   T   T
  0.7613560017962847  0.0982102382813834  0.5001939154179293   T   T   T
  0.7615986112894471  0.2413395530841929  0.4999513860194117   T   T   T
  0.7612846737806883  0.3844580985968978  0.4999295338592855   T   T   T
  0.7609225779081518  0.5291681001635724  0.5000794117661477   T   T   T
  0.7628905602636364  0.6651491424207611  0.5002031762098157   T   T   T
  0.7577066583905150  0.8081726780158500  0.5003525481745603   T   T   T
  0.7601777644606282  0.9540936172797847  0.5004182945929355   T   T   T
  0.9035072692786682  0.0967453051465174  0.5002581121894599   T   T   T
  0.9043173366554002  0.2407462980542698  0.5000430960853516   T   T   T
  0.9046958969476637  0.3840375374666619  0.5000140218797994   T   T   T
  0.9053901294771259  0.5268173478276568  0.5002125505091695   T   T   T
  0.9058635320079462  0.6692153743029389  0.5004222932595140   T   T   T
  0.9040240168253778  0.8115797602892786  0.5004673125289552   T   T   T
  0.9029831833081078  0.9532704811494712  0.5003879218653204   T   T   T
  0.7153557930380692  0.7140261372427160  0.5000513157446036   T   T   T
  0.3321053068709781  0.5224831577513518  0.4996879864039087   T   T   T
  0.6270837480647232  0.6657336148753004  0.4994672047667109   T   T   T
  0.4206843795171081  0.5623349962031746  0.4995119306425697   T   T   T
  0.4274736494719422  0.2878238736853251  0.4995236238561733   T   T   T
  0.4291113781290294  0.7193568280820845  0.5004262027502129   T   T   T
  0.7170062287025164  0.5744472195210010  0.5000570652830277   T   T   T
  0.3308669343653459  0.3813715184165881  0.4994153413040611   T   T   T
  0.6201914725584993  0.3844564060498880  0.4998301214387295   T   T   T
  0.6186314643217267  0.8141717978879572  0.5005488520997956   T   T   T
  0.4619199099229070  0.4407210941922537  0.4994402660400602   T   T   T
  0.5588076383950128  0.4572563467728816  0.4997232450549068   T   T   T
  0.5245185322378815  0.4883159911749619  0.5000000000000000   T   T   F
 
  0.00000000E+00  0.00000000E+00  0.00000000E+00
  0.00000000E+00  0.00000000E+00  0.00000000E+00
  0.00000000E+00  0.00000000E+00  0.00000000E+00
  0.00000000E+00  0.00000000E+00  0.00000000E+00
  0.00000000E+00  0.00000000E+00  0.00000000E+00
  0.00000000E+00  0.00000000E+00  0.00000000E+00
  0.00000000E+00  0.00000000E+00  0.00000000E+00
  0.00000000E+00  0.00000000E+00  0.00000000E+00
  0.00000000E+00  0.00000000E+00  0.00000000E+00
  0.00000000E+00  0.00000000E+00  0.00000000E+00
  0.00000000E+00  0.00000000E+00  0.00000000E+00
  0.00000000E+00  0.00000000E+00  0.00000000E+00
  0.00000000E+00  0.00000000E+00  0.00000000E+00
  0.00000000E+00  0.00000000E+00  0.00000000E+00
  0.00000000E+00  0.00000000E+00  0.00000000E+00
  0.00000000E+00  0.00000000E+00  0.00000000E+00
  0.00000000E+00  0.00000000E+00  0.00000000E+00
  0.00000000E+00  0.00000000E+00  0.00000000E+00
  0.00000000E+00  0.00000000E+00  0.00000000E+00
  0.00000000E+00  0.00000000E+00  0.00000000E+00
  0.00000000E+00  0.00000000E+00  0.00000000E+00
  0.00000000E+00  0.00000000E+00  0.00000000E+00
  0.00000000E+00  0.00000000E+00  0.00000000E+00
  0.00000000E+00  0.00000000E+00  0.00000000E+00
  0.00000000E+00  0.00000000E+00  0.00000000E+00
  0.00000000E+00  0.00000000E+00  0.00000000E+00
  0.00000000E+00  0.00000000E+00  0.00000000E+00
  0.00000000E+00  0.00000000E+00  0.00000000E+00
  0.00000000E+00  0.00000000E+00  0.00000000E+00
  0.00000000E+00  0.00000000E+00  0.00000000E+00
  0.00000000E+00  0.00000000E+00  0.00000000E+00
  0.00000000E+00  0.00000000E+00  0.00000000E+00
  0.00000000E+00  0.00000000E+00  0.00000000E+00
  0.00000000E+00  0.00000000E+00  0.00000000E+00
  0.00000000E+00  0.00000000E+00  0.00000000E+00
  0.00000000E+00  0.00000000E+00  0.00000000E+00
  0.00000000E+00  0.00000000E+00  0.00000000E+00
  0.00000000E+00  0.00000000E+00  0.00000000E+00
  0.00000000E+00  0.00000000E+00  0.00000000E+00
  0.00000000E+00  0.00000000E+00  0.00000000E+00
  0.00000000E+00  0.00000000E+00  0.00000000E+00
  0.00000000E+00  0.00000000E+00  0.00000000E+00
  0.00000000E+00  0.00000000E+00  0.00000000E+00
  0.00000000E+00  0.00000000E+00  0.00000000E+00
  0.00000000E+00  0.00000000E+00  0.00000000E+00
  0.00000000E+00  0.00000000E+00  0.00000000E+00
  0.00000000E+00  0.00000000E+00  0.00000000E+00
  0.00000000E+00  0.00000000E+00  0.00000000E+00
  0.00000000E+00  0.00000000E+00  0.00000000E+00
  0.00000000E+00  0.00000000E+00  0.00000000E+00
  0.00000000E+00  0.00000000E+00  0.00000000E+00
  0.00000000E+00  0.00000000E+00  0.00000000E+00
  0.00000000E+00  0.00000000E+00  0.00000000E+00
  0.00000000E+00  0.00000000E+00  0.00000000E+00
  0.00000000E+00  0.00000000E+00  0.00000000E+00
  0.00000000E+00  0.00000000E+00  0.00000000E+00
  0.00000000E+00  0.00000000E+00  0.00000000E+00
  0.00000000E+00  0.00000000E+00  0.00000000E+00
  0.00000000E+00  0.00000000E+00  0.00000000E+00
  0.00000000E+00  0.00000000E+00  0.00000000E+00
  0.00000000E+00  0.00000000E+00  0.00000000E+00
  0.00000000E+00  0.00000000E+00  0.00000000E+00
  0.00000000E+00  0.00000000E+00  0.00000000E+00
  0.00000000E+00  0.00000000E+00  0.00000000E+00
  0.00000000E+00  0.00000000E+00  0.00000000E+00
  0.00000000E+00  0.00000000E+00  0.00000000E+00
  0.00000000E+00  0.00000000E+00  0.00000000E+00
  0.00000000E+00  0.00000000E+00  0.00000000E+00
  0.00000000E+00  0.00000000E+00  0.00000000E+00
  0.00000000E+00  0.00000000E+00  0.00000000E+00
  0.00000000E+00  0.00000000E+00  0.00000000E+00
  0.00000000E+00  0.00000000E+00  0.00000000E+00
  0.00000000E+00  0.00000000E+00  0.00000000E+00
  0.00000000E+00  0.00000000E+00  0.00000000E+00
  0.00000000E+00  0.00000000E+00  0.00000000E+00
  0.00000000E+00  0.00000000E+00  0.00000000E+00
  0.00000000E+00  0.00000000E+00  0.00000000E+00
  0.00000000E+00  0.00000000E+00  0.00000000E+00
  0.00000000E+00  0.00000000E+00  0.00000000E+00
  0.00000000E+00  0.00000000E+00  0.00000000E+00
  0.00000000E+00  0.00000000E+00  0.00000000E+00
  0.00000000E+00  0.00000000E+00  0.00000000E+00
  0.00000000E+00  0.00000000E+00  0.00000000E+00
  0.00000000E+00  0.00000000E+00  0.00000000E+00
  0.00000000E+00  0.00000000E+00  0.00000000E+00
  0.00000000E+00  0.00000000E+00  0.00000000E+00
  0.00000000E+00  0.00000000E+00  0.00000000E+00
  0.00000000E+00  0.00000000E+00  0.00000000E+00
  0.00000000E+00  0.00000000E+00  0.00000000E+00
  0.00000000E+00  0.00000000E+00  0.00000000E+00
  0.00000000E+00  0.00000000E+00  0.00000000E+00
  0.00000000E+00  0.00000000E+00  0.00000000E+00
  0.00000000E+00  0.00000000E+00  0.00000000E+00
