C4                                      
    1.000000000000000     
    17.2710380553999983    0.0000000000000000    0.0000000000000000
    -8.6355190276999991   14.9571577057000002    0.0000000000000000
     0.0000000000000000    0.0000000000000000   15.0000000000000000
   C    H    F 
    88     6     2
Direct
  0.0002467404817894  0.0001786432445195  0.2499995578860468
 -0.0006488848538199  0.1425956427579959  0.2499992427085571
 -0.0011197398559185  0.2851186162172138  0.2499990508151399
 -0.0007666009996689  0.4280989925114582  0.2499992915721690
  0.0001648454392350  0.5713752421312920  0.2500010562393136
  0.0019958755545517  0.7149494299076171  0.2499996210250822
  0.0019509503214921  0.8583377425802696  0.2499988195668650
  0.1431513843042586  0.0001922887884509  0.2500005321293975
  0.1423012115432584  0.1427987661930651  0.2499995911490453
  0.1413482415736843  0.2849014998850929  0.2499994813452397
  0.1413517906983089  0.4277677238484044  0.2499998480135486
  0.1422634843658583  0.5708274867612312  0.2500007675060967
  0.1430935309051797  0.7142283888565945  0.2500000026071149
  0.1436327389473397  0.8574661154673867  0.2500011250755108
  0.2855382555394060 -0.0003831968030066  0.2500020664532215
  0.2844536104594792  0.1415741689387169  0.2500005973964975
  0.2848319219185565  0.2863418904100045  0.2500010672365739
  0.2833373086828803  0.4273286577903328  0.2499988018735739
  0.2848830566017685  0.5698481652499481  0.2500013384732085
  0.2844269316469015  0.7142552759937744  0.2499995131713997
  0.2854944073470294  0.8572286636829434  0.2500007264719361
  0.4283817978223093 -0.0001856830870080  0.2500000047419547
  0.4278803099261702  0.1421176821178493  0.2499995764135992
  0.4241900357529766  0.2804747346119157  0.2500011988766693
  0.4241906699292257  0.7151437052217150  0.2500039504797478
  0.4278601315452425  0.8570722644941864  0.2499994580083935
  0.5710067962811318 -0.0000182733815613  0.2499993416994886
  0.5709687315056620  0.1423763296317762  0.2500030586072445
  0.5708891379385230  0.2848501417264977  0.2500004795883073
  0.5709501056010639  0.8574999729839272  0.2499998636340067
  0.7140791437429650 -0.0001229044369951  0.2499996800808226
  0.7139194363905093  0.1426577230785767  0.2500001324500261
  0.7139254778981873  0.2854697106612976  0.2500035576865201
  0.7150024641424154  0.4287987762370069  0.2500017382275080
  0.7206428511062147  0.5764187702194121  0.2500060037974299
  0.7207282034949785  0.7156409348356492  0.2500041228644719
  0.7150733347850430  0.8576236470334643  0.2500003374975078
  0.8572361880596518  0.0001447139691648  0.2500005597631219
  0.8565321796459917  0.1425601752381458  0.2499991050747446
  0.8563771731962870  0.2852377100111744  0.2500002211856636
  0.8570893433625433  0.4283691999137344  0.2500044190845193
  0.8585259467885351  0.5722262662956126  0.2500006227692668
  0.8621582052897646  0.7167473127869884  0.2500003050551896
  0.8585583860633224  0.8576763111941247  0.2500002310761636
  0.0473482255862368  0.0952988411150087  0.2499998499682380
  0.0462042627087744  0.2373593417320693  0.2499991811277079
  0.0461557439605199  0.3801965473730735  0.2499998647801291
  0.0472829710383959  0.5234110187696083  0.2500009731228683
  0.0483211871822820  0.6666983758377054  0.2500002049375640
  0.0488930974670463  0.8101077996732742  0.2499998835742289
  0.0483333577488842  0.9529167156544031  0.2499993357258712
  0.1897208276587830  0.0946621527339336  0.2499998004951190
  0.1892340717020743  0.2377792540749612  0.2499998493762023
  0.1880168981737690  0.3796526232706949  0.2499995880836208
  0.1892393028463091  0.5227910430707311  0.2500008771755652
  0.1896915502029830  0.6663799654149108  0.2500004878997458
  0.1907384618362374  0.8096153586740779  0.2500007669699520
  0.1907758197934281  0.9524148090996840  0.2500019662658907
  0.3328303543779911  0.0948003828441422  0.2500007272031464
  0.3318848243755426  0.2361706558472380  0.2500025194115114
  0.3293174709485719  0.3791960854330631  0.2500004840807115
  0.3293655447959047  0.5214395239877823  0.2500002370133866
  0.3318835514026005  0.6670959696942721  0.2500030378014220
  0.3328245439450577  0.8094319439900035  0.2500005059773207
  0.3330682323432163  0.9521705903044601  0.2500000464875226
  0.4758254079344296  0.0947859208395843  0.2500012312916772
  0.4744129498909930  0.2372477756045249  0.2500001142921027
  0.4744665948139729  0.8085758416731272  0.2500010769075730
  0.4758388529890497  0.9523210289368772  0.2499991283240896
  0.6185641224988316  0.0949590303311740  0.2500011278054806
  0.6187935025447489  0.2375972053721664  0.2500054724976148
  0.6223147839460843  0.3779479270528914  0.2499882813501980
  0.6223894958025222  0.8158699974893927  0.2499997708332254
  0.6188902759476214  0.9526181106188749  0.2499996229015571
  0.7615603887218731  0.0952179267752976  0.2499992465311726
  0.7614106495553075  0.2377049731281981  0.2500006662035190
  0.7620416415495160  0.3806705897898007  0.2500071611545035
  0.7627059991409458  0.5257347577032950  0.2500009165050365
  0.7681688656130019  0.6697595867822329  0.2500044221979920
  0.7627707569863150  0.8083727135419079  0.2500003964275752
  0.7621601236352995  0.9527739494592874  0.2500002946858262
  0.9042205034033803  0.0948715133793207  0.2499997934012511
  0.9038121800357694  0.2375958928772720  0.2499989972433352
  0.9040696097167068  0.3806021655665717  0.2500016678189269
  0.9051254211803882  0.5239566812034887  0.2500023935369853
  0.9073043969880439  0.6674680778256512  0.2499996909963528
  0.9072593447527587  0.8111865831609747  0.2499993383446260
  0.9051792537665060  0.9525192241144878  0.2500000193990064
  0.4574531129716327  0.3519456078933402  0.2500068092873040
  0.4020545104438565  0.4181865721361642  0.2500011691686118
  0.4021029192950756  0.5551602876752610  0.2500010666541993
  0.6491509712656963  0.6737310474365863  0.2500041552515022
  0.6490816189008158  0.5467893831758543  0.2500073176122675
  0.4574279763877172  0.6769065818792707  0.2500043894955356
  0.5773860488303101  0.4241079147038491  0.2499229505552031
  0.5774028810912174  0.7248239934349409  0.2500010564701190
 
  0.00000000E+00  0.00000000E+00  0.00000000E+00
  0.00000000E+00  0.00000000E+00  0.00000000E+00
  0.00000000E+00  0.00000000E+00  0.00000000E+00
  0.00000000E+00  0.00000000E+00  0.00000000E+00
  0.00000000E+00  0.00000000E+00  0.00000000E+00
  0.00000000E+00  0.00000000E+00  0.00000000E+00
  0.00000000E+00  0.00000000E+00  0.00000000E+00
  0.00000000E+00  0.00000000E+00  0.00000000E+00
  0.00000000E+00  0.00000000E+00  0.00000000E+00
  0.00000000E+00  0.00000000E+00  0.00000000E+00
  0.00000000E+00  0.00000000E+00  0.00000000E+00
  0.00000000E+00  0.00000000E+00  0.00000000E+00
  0.00000000E+00  0.00000000E+00  0.00000000E+00
  0.00000000E+00  0.00000000E+00  0.00000000E+00
  0.00000000E+00  0.00000000E+00  0.00000000E+00
  0.00000000E+00  0.00000000E+00  0.00000000E+00
  0.00000000E+00  0.00000000E+00  0.00000000E+00
  0.00000000E+00  0.00000000E+00  0.00000000E+00
  0.00000000E+00  0.00000000E+00  0.00000000E+00
  0.00000000E+00  0.00000000E+00  0.00000000E+00
  0.00000000E+00  0.00000000E+00  0.00000000E+00
  0.00000000E+00  0.00000000E+00  0.00000000E+00
  0.00000000E+00  0.00000000E+00  0.00000000E+00
  0.00000000E+00  0.00000000E+00  0.00000000E+00
  0.00000000E+00  0.00000000E+00  0.00000000E+00
  0.00000000E+00  0.00000000E+00  0.00000000E+00
  0.00000000E+00  0.00000000E+00  0.00000000E+00
  0.00000000E+00  0.00000000E+00  0.00000000E+00
  0.00000000E+00  0.00000000E+00  0.00000000E+00
  0.00000000E+00  0.00000000E+00  0.00000000E+00
  0.00000000E+00  0.00000000E+00  0.00000000E+00
  0.00000000E+00  0.00000000E+00  0.00000000E+00
  0.00000000E+00  0.00000000E+00  0.00000000E+00
  0.00000000E+00  0.00000000E+00  0.00000000E+00
  0.00000000E+00  0.00000000E+00  0.00000000E+00
  0.00000000E+00  0.00000000E+00  0.00000000E+00
  0.00000000E+00  0.00000000E+00  0.00000000E+00
  0.00000000E+00  0.00000000E+00  0.00000000E+00
  0.00000000E+00  0.00000000E+00  0.00000000E+00
  0.00000000E+00  0.00000000E+00  0.00000000E+00
  0.00000000E+00  0.00000000E+00  0.00000000E+00
  0.00000000E+00  0.00000000E+00  0.00000000E+00
  0.00000000E+00  0.00000000E+00  0.00000000E+00
  0.00000000E+00  0.00000000E+00  0.00000000E+00
  0.00000000E+00  0.00000000E+00  0.00000000E+00
  0.00000000E+00  0.00000000E+00  0.00000000E+00
  0.00000000E+00  0.00000000E+00  0.00000000E+00
  0.00000000E+00  0.00000000E+00  0.00000000E+00
  0.00000000E+00  0.00000000E+00  0.00000000E+00
  0.00000000E+00  0.00000000E+00  0.00000000E+00
  0.00000000E+00  0.00000000E+00  0.00000000E+00
  0.00000000E+00  0.00000000E+00  0.00000000E+00
  0.00000000E+00  0.00000000E+00  0.00000000E+00
  0.00000000E+00  0.00000000E+00  0.00000000E+00
  0.00000000E+00  0.00000000E+00  0.00000000E+00
  0.00000000E+00  0.00000000E+00  0.00000000E+00
  0.00000000E+00  0.00000000E+00  0.00000000E+00
  0.00000000E+00  0.00000000E+00  0.00000000E+00
  0.00000000E+00  0.00000000E+00  0.00000000E+00
  0.00000000E+00  0.00000000E+00  0.00000000E+00
  0.00000000E+00  0.00000000E+00  0.00000000E+00
  0.00000000E+00  0.00000000E+00  0.00000000E+00
  0.00000000E+00  0.00000000E+00  0.00000000E+00
  0.00000000E+00  0.00000000E+00  0.00000000E+00
  0.00000000E+00  0.00000000E+00  0.00000000E+00
  0.00000000E+00  0.00000000E+00  0.00000000E+00
  0.00000000E+00  0.00000000E+00  0.00000000E+00
  0.00000000E+00  0.00000000E+00  0.00000000E+00
  0.00000000E+00  0.00000000E+00  0.00000000E+00
  0.00000000E+00  0.00000000E+00  0.00000000E+00
  0.00000000E+00  0.00000000E+00  0.00000000E+00
  0.00000000E+00  0.00000000E+00  0.00000000E+00
  0.00000000E+00  0.00000000E+00  0.00000000E+00
  0.00000000E+00  0.00000000E+00  0.00000000E+00
  0.00000000E+00  0.00000000E+00  0.00000000E+00
  0.00000000E+00  0.00000000E+00  0.00000000E+00
  0.00000000E+00  0.00000000E+00  0.00000000E+00
  0.00000000E+00  0.00000000E+00  0.00000000E+00
  0.00000000E+00  0.00000000E+00  0.00000000E+00
  0.00000000E+00  0.00000000E+00  0.00000000E+00
  0.00000000E+00  0.00000000E+00  0.00000000E+00
  0.00000000E+00  0.00000000E+00  0.00000000E+00
  0.00000000E+00  0.00000000E+00  0.00000000E+00
  0.00000000E+00  0.00000000E+00  0.00000000E+00
  0.00000000E+00  0.00000000E+00  0.00000000E+00
  0.00000000E+00  0.00000000E+00  0.00000000E+00
  0.00000000E+00  0.00000000E+00  0.00000000E+00
  0.00000000E+00  0.00000000E+00  0.00000000E+00
  0.00000000E+00  0.00000000E+00  0.00000000E+00
  0.00000000E+00  0.00000000E+00  0.00000000E+00
  0.00000000E+00  0.00000000E+00  0.00000000E+00
  0.00000000E+00  0.00000000E+00  0.00000000E+00
  0.00000000E+00  0.00000000E+00  0.00000000E+00
  0.00000000E+00  0.00000000E+00  0.00000000E+00
  0.00000000E+00  0.00000000E+00  0.00000000E+00
  0.00000000E+00  0.00000000E+00  0.00000000E+00
