C4                                      
1.0
       17.2710380554         0.0000000000         0.0000000000
       -8.6355190277        14.9571577057         0.0000000000
        0.0000000000         0.0000000000        15.0000000000
    C    H    F
   88    6    2
Cartesian
     0.000000000         0.000000000         3.750000000
    -1.233645575         2.136736815         3.750000000
    -2.467291151         4.273473630         3.750000000
    -3.700936726         6.410210445         3.750000000
    -4.934582301         8.546947260         3.750000000
    -6.168227877        10.683684076         3.750000000
    -7.401873453        12.820420891         3.750000000
     2.467291151         0.000000000         3.750000000
     1.233645575         2.136736815         3.750000000
     0.000000000         4.273473630         3.750000000
    -1.233645575         6.410210445         3.750000000
    -2.467291151         8.546947260         3.750000000
    -3.700936726        10.683684076         3.750000000
    -4.934582302        12.820420891         3.750000000
     4.934582302         0.000000000         3.750000000
     3.700936726         2.136736815         3.750000000
     2.467291151         4.273473630         3.750000000
     1.233645575         6.410210445         3.750000000
     0.000000000         8.546947260         3.750000000
    -1.233645575        10.683684076         3.750000000
    -2.467291151        12.820420891         3.750000000
     7.401873452         0.000000000         3.750000000
     6.168227877         2.136736815         3.750000000
     4.934574900         4.273473630         3.750000000
     1.233645575        10.683684076         3.750000000
     0.000000000        12.820420891         3.750000000
     9.869164603         0.000000000         3.750000000
     8.635519028         2.136736815         3.750000000
     7.401873452         4.273473630         3.750000000
     2.467291151        12.820420891         3.750000000
    12.336455754         0.000000000         3.750000000
    11.102810178         2.136736815         3.750000000
     9.869164603         4.273473630         3.750000000
     8.635519028         6.410210445         3.750000000
     7.401873452         8.546947260         3.750000000
     6.168227877        10.683684076         3.750000000
     4.934582302        12.820420891         3.750000000
    14.803746905         0.000000000         3.750000000
    13.570101329         2.136736815         3.750000000
    12.336455754         4.273473630         3.750000000
    11.102810178         6.410210445         3.750000000
     9.869164603         8.546947260         3.750000000
     8.635519028        10.683684076         3.750000000
     7.401873452        12.820420891         3.750000000
    -0.000001234         1.424491922         3.750000000
    -1.233646809         3.561228737         3.750000000
    -2.467292384         5.697965553         3.750000000
    -3.700937960         7.834702368         3.750000000
    -4.934583535         9.971439183         3.750000000
    -6.168229111        12.108175998         3.750000000
    -7.401874686        14.244912813         3.750000000
     2.467289917         1.424491922         3.750000000
     1.233644342         3.561228737         3.750000000
    -0.000001234         5.697965553         3.750000000
    -1.233646809         7.834702368         3.750000000
    -2.467292384         9.971439183         3.750000000
    -3.700937960        12.108175998         3.750000000
    -4.934583535        14.244912813         3.750000000
     4.934581068         1.424491922         3.750000000
     3.700935493         3.561228737         3.750000000
     2.467289917         5.697965553         3.750000000
     1.233644342         7.834702368         3.750000000
    -0.000001234         9.971439183         3.750000000
    -1.233646809        12.108175998         3.750000000
    -2.467292384        14.244912813         3.750000000
     7.401872219         1.424491922         3.750000000
     6.168226643         3.561228737         3.750000000
     1.233644342        12.108175998         3.750000000
    -0.000001234        14.244912813         3.750000000
     9.869163369         1.424491922         3.750000000
     8.635517794         3.561228737         3.750000000
     7.401872219         5.697965553         3.750000000
     3.700935493        12.108175998         3.750000000
     2.467289917        14.244912813         3.750000000
    12.336454520         1.424491922         3.750000000
    11.102808945         3.561228737         3.750000000
     9.869163369         5.697965553         3.750000000
     8.635517794         7.834702368         3.750000000
     7.401872219         9.971439183         3.750000000
     6.168226643        12.108175998         3.750000000
     4.934581068        14.244912813         3.750000000
    14.803745671         1.424491922         3.750000000
    13.570100096         3.561228737         3.750000000
    12.336454520         5.697965553         3.750000000
    11.102808945         7.834702368         3.750000000
     9.869163369         9.971439183         3.750000000
     8.635517794        12.108175998         3.750000000
     7.401872219        14.244912813         3.750000000
     4.922245846         5.354662459         3.750000000
     3.385123459         6.252091921         3.750000000
     2.158879757         8.376008315         3.750000000
     5.246699567        10.096081451         3.750000000
     6.485274790         7.972165057         3.750000000
     2.177126609        10.156343840         3.750000000
     6.195984902         6.319399131         3.750000000
     3.674931477        10.760179253         3.750000000
