C4                                      
    1.000000000000000     
    17.2710380553999983    0.0000000000000000    0.0000000000000000
    -8.6355190276999991   14.9571577057000002    0.0000000000000000
     0.0000000000000000    0.0000000000000000   15.0000000000000000
   C    F    N 
    84     4     4
Direct
  0.0002097789490256  0.0000711292217668  0.2499988523093766
 -0.0010727927637441  0.1419898963542595  0.2499974485179612
 -0.0010540984780686  0.2851979640514155  0.2499971764523976
 -0.0004694311066958  0.4284162403058213  0.2499982987527821
 -0.0001531900592133  0.5714907381134304  0.2499939673298886
  0.0008692251021133  0.7146611367424310  0.2499978002178553
  0.0019622042983504  0.8583784524633918  0.2499970987362759
  0.1441864693058597  0.0016524177335956  0.2499990840111646
  0.1428301062684724  0.1435507677962222  0.2500022295722983
  0.1407032583981632  0.2847893346796953  0.2499978825954988
  0.1421726830519254  0.4287005281682464  0.2499975426530409
  0.1432823498437749  0.5714258536779439  0.2499939960688589
  0.1432625024047166  0.7147184094706898  0.2499976266583005
  0.1438353911987517  0.8582438821785715  0.2500002465157444
  0.2867273703689432  0.0019402928325299  0.2500015384597968
  0.2869695829603646  0.1456458268988366  0.2500008852338789
  0.2851726426707901  0.2904383497467026  0.2500028092856552
  0.2827691074608155  0.4240232795277319  0.2500027221638966
  0.2881478812135715  0.5715725710912890  0.2500028893461507
  0.2854787893311255  0.7149777703752923  0.2499962084175923
  0.2857123922013046  0.8583392485684124  0.2499987943417526
  0.4289439917794001  0.0009851316547998  0.2499998458928220
  0.4300068308641751  0.1453607345955592  0.2499999995005419
  0.4282490268300676  0.2852976202780905  0.2500073143602320
  0.4275139071240341  0.8571170939189848  0.2499991786201317
  0.5708845027232166 -0.0010573143109767  0.2499983256588490
  0.5717659364736659  0.1427315765836269  0.2500000449770259
  0.5759508995243322  0.2892178649234657  0.2499993817056109
  0.5690227178306821  0.8538700575521818  0.2499940892518986
  0.7129143583056627 -0.0027074621806218  0.2499966003684494
  0.7140048627742321  0.1416538046636029  0.2500012468297047
  0.7148236939910975  0.2851794869752772  0.2500001783070657
  0.7110969607578678  0.4250661525338096  0.2500018445389632
  0.7173517729221307  0.5754327851715405  0.2500109573153026
  0.7130462506509478  0.8534621783927310  0.2499917085364223
  0.8561514207554137 -0.0015696113865048  0.2499985597986529
  0.8561178466620547  0.1415315866573655  0.2500009081084451
  0.8566892587216797  0.2850039693690342  0.2499983616814906
  0.8569877580674278  0.4283510653771519  0.2499965666838934
  0.8561111745047315  0.5712257792600773  0.2499968403605481
  0.8597985534695984  0.7157227633908337  0.2499959633988076
  0.8583233290483745  0.8567039526091137  0.2499971996341812
  0.0475136082157047  0.0953136693297276  0.2499988918060174
  0.0456880286747708  0.2369837870927379  0.2499961099348403
  0.0467695762862460  0.3807739068833990  0.2499973023025322
  0.0477037559851586  0.5238082016184811  0.2499941231241241
  0.0480352742282353  0.6669438535317996  0.2499970896137465
  0.0487569544039609  0.8102131945658868  0.2499990276897117
  0.0488046776104289  0.9533794733239602  0.2499980280383326
  0.1914159795498955  0.0967846572699593  0.2500006753522399
  0.1891980159705590  0.2385483632193020  0.2500026043927892
  0.1878099933560109  0.3795873578239578  0.2499970175584429
  0.1914176995514471  0.5240739712627441  0.2499987903741895
  0.1904310120493023  0.6669594582805493  0.2499955357175836
  0.1909069773355812  0.8103053184727399  0.2499991032468372
  0.1915895243219350  0.9537624469339102  0.2500002861231764
  0.3345768390047601  0.0977939648352058  0.2500005008374500
  0.3343823511934454  0.2415312223073406  0.2500030142146075
  0.3302734843616310  0.5198302740108600  0.2500227499035287
  0.3362298826457545  0.6700358349833776  0.2500011214686724
  0.3327880624591068  0.8101165064060264  0.2499982490364918
  0.3336492798300865  0.9536775029923301  0.2499995026375364
  0.4767433667881859  0.0963076649533905  0.2499992624342562
  0.4784958646281476  0.2411295120244162  0.2500013193729769
  0.4715148061787254  0.8057660534972114  0.2499959513745380
  0.4758960771299378  0.9525357675460900  0.2499995306223252
  0.6186856828768841  0.0942969106048017  0.2499979469479878
  0.6201161386013676  0.2380689967460295  0.2499998714291776
  0.6191460503596415  0.8096053577504200  0.2499977108126881
  0.6174482354632280  0.9497087715263067  0.2499948572931947
  0.7609098612245901  0.0932761697513755  0.2500007731498744
  0.7618795808177035  0.2369794235017446  0.2500002542693239
  0.7619498219930215  0.3802858081914698  0.2499995791311261
  0.7593839378989417  0.5236384784556071  0.2500048610858069
  0.7648500280267596  0.6711966117916990  0.2500039234614329
  0.7623214694173419  0.8046845329379182  0.2499939152417352
  0.7605592045815790  0.9494488027106075  0.2499933053378619
  0.9035335052754213  0.0935878882602876  0.2500000164951039
  0.9038291928068499  0.2371063580743704  0.2499954822446733
  0.9042617803916008  0.3806673129200328  0.2499970038892871
  0.9042509370708406  0.5238988226295738  0.2499944051699260
  0.9054236149457250  0.6666386067915894  0.2499942088238692
  0.9068991414293157  0.8105409261117428  0.2499950066914711
  0.9048241225352694  0.9517350179745150  0.2500011511721152
  0.4726081552606241  0.3743673315032964  0.2500056838836158
  0.4192984341082428  0.5586637010837965  0.2500775350974320
  0.6282516279251689  0.5368397286795981  0.2499993300243971
  0.5744934738956763  0.7204786006640224  0.2499980281517525
  0.4256457158434991  0.7156877398412954  0.2499958341547519
  0.7185245024368324  0.7152622711940726  0.2499983078385633
  0.3290307388182802  0.3798876672725760  0.2500039275506072
  0.6217022493857527  0.3793611797396110  0.2500010803060724
 
  0.00000000E+00  0.00000000E+00  0.00000000E+00
  0.00000000E+00  0.00000000E+00  0.00000000E+00
  0.00000000E+00  0.00000000E+00  0.00000000E+00
  0.00000000E+00  0.00000000E+00  0.00000000E+00
  0.00000000E+00  0.00000000E+00  0.00000000E+00
  0.00000000E+00  0.00000000E+00  0.00000000E+00
  0.00000000E+00  0.00000000E+00  0.00000000E+00
  0.00000000E+00  0.00000000E+00  0.00000000E+00
  0.00000000E+00  0.00000000E+00  0.00000000E+00
  0.00000000E+00  0.00000000E+00  0.00000000E+00
  0.00000000E+00  0.00000000E+00  0.00000000E+00
  0.00000000E+00  0.00000000E+00  0.00000000E+00
  0.00000000E+00  0.00000000E+00  0.00000000E+00
  0.00000000E+00  0.00000000E+00  0.00000000E+00
  0.00000000E+00  0.00000000E+00  0.00000000E+00
  0.00000000E+00  0.00000000E+00  0.00000000E+00
  0.00000000E+00  0.00000000E+00  0.00000000E+00
  0.00000000E+00  0.00000000E+00  0.00000000E+00
  0.00000000E+00  0.00000000E+00  0.00000000E+00
  0.00000000E+00  0.00000000E+00  0.00000000E+00
  0.00000000E+00  0.00000000E+00  0.00000000E+00
  0.00000000E+00  0.00000000E+00  0.00000000E+00
  0.00000000E+00  0.00000000E+00  0.00000000E+00
  0.00000000E+00  0.00000000E+00  0.00000000E+00
  0.00000000E+00  0.00000000E+00  0.00000000E+00
  0.00000000E+00  0.00000000E+00  0.00000000E+00
  0.00000000E+00  0.00000000E+00  0.00000000E+00
  0.00000000E+00  0.00000000E+00  0.00000000E+00
  0.00000000E+00  0.00000000E+00  0.00000000E+00
  0.00000000E+00  0.00000000E+00  0.00000000E+00
  0.00000000E+00  0.00000000E+00  0.00000000E+00
  0.00000000E+00  0.00000000E+00  0.00000000E+00
  0.00000000E+00  0.00000000E+00  0.00000000E+00
  0.00000000E+00  0.00000000E+00  0.00000000E+00
  0.00000000E+00  0.00000000E+00  0.00000000E+00
  0.00000000E+00  0.00000000E+00  0.00000000E+00
  0.00000000E+00  0.00000000E+00  0.00000000E+00
  0.00000000E+00  0.00000000E+00  0.00000000E+00
  0.00000000E+00  0.00000000E+00  0.00000000E+00
  0.00000000E+00  0.00000000E+00  0.00000000E+00
  0.00000000E+00  0.00000000E+00  0.00000000E+00
  0.00000000E+00  0.00000000E+00  0.00000000E+00
  0.00000000E+00  0.00000000E+00  0.00000000E+00
  0.00000000E+00  0.00000000E+00  0.00000000E+00
  0.00000000E+00  0.00000000E+00  0.00000000E+00
  0.00000000E+00  0.00000000E+00  0.00000000E+00
  0.00000000E+00  0.00000000E+00  0.00000000E+00
  0.00000000E+00  0.00000000E+00  0.00000000E+00
  0.00000000E+00  0.00000000E+00  0.00000000E+00
  0.00000000E+00  0.00000000E+00  0.00000000E+00
  0.00000000E+00  0.00000000E+00  0.00000000E+00
  0.00000000E+00  0.00000000E+00  0.00000000E+00
  0.00000000E+00  0.00000000E+00  0.00000000E+00
  0.00000000E+00  0.00000000E+00  0.00000000E+00
  0.00000000E+00  0.00000000E+00  0.00000000E+00
  0.00000000E+00  0.00000000E+00  0.00000000E+00
  0.00000000E+00  0.00000000E+00  0.00000000E+00
  0.00000000E+00  0.00000000E+00  0.00000000E+00
  0.00000000E+00  0.00000000E+00  0.00000000E+00
  0.00000000E+00  0.00000000E+00  0.00000000E+00
  0.00000000E+00  0.00000000E+00  0.00000000E+00
  0.00000000E+00  0.00000000E+00  0.00000000E+00
  0.00000000E+00  0.00000000E+00  0.00000000E+00
  0.00000000E+00  0.00000000E+00  0.00000000E+00
  0.00000000E+00  0.00000000E+00  0.00000000E+00
  0.00000000E+00  0.00000000E+00  0.00000000E+00
  0.00000000E+00  0.00000000E+00  0.00000000E+00
  0.00000000E+00  0.00000000E+00  0.00000000E+00
  0.00000000E+00  0.00000000E+00  0.00000000E+00
  0.00000000E+00  0.00000000E+00  0.00000000E+00
  0.00000000E+00  0.00000000E+00  0.00000000E+00
  0.00000000E+00  0.00000000E+00  0.00000000E+00
  0.00000000E+00  0.00000000E+00  0.00000000E+00
  0.00000000E+00  0.00000000E+00  0.00000000E+00
  0.00000000E+00  0.00000000E+00  0.00000000E+00
  0.00000000E+00  0.00000000E+00  0.00000000E+00
  0.00000000E+00  0.00000000E+00  0.00000000E+00
  0.00000000E+00  0.00000000E+00  0.00000000E+00
  0.00000000E+00  0.00000000E+00  0.00000000E+00
  0.00000000E+00  0.00000000E+00  0.00000000E+00
  0.00000000E+00  0.00000000E+00  0.00000000E+00
  0.00000000E+00  0.00000000E+00  0.00000000E+00
  0.00000000E+00  0.00000000E+00  0.00000000E+00
  0.00000000E+00  0.00000000E+00  0.00000000E+00
  0.00000000E+00  0.00000000E+00  0.00000000E+00
  0.00000000E+00  0.00000000E+00  0.00000000E+00
  0.00000000E+00  0.00000000E+00  0.00000000E+00
  0.00000000E+00  0.00000000E+00  0.00000000E+00
  0.00000000E+00  0.00000000E+00  0.00000000E+00
  0.00000000E+00  0.00000000E+00  0.00000000E+00
  0.00000000E+00  0.00000000E+00  0.00000000E+00
  0.00000000E+00  0.00000000E+00  0.00000000E+00
