C    H    N    O                        
    1.000000000000000     
    17.2710380553999983    0.0000000000000000    0.0000000000000000
    -8.6355190276999991   14.9571577057000002    0.0000000000000000
     0.0000000000000000    0.0000000000000000   15.0000000000000000
   C    H    N    O 
    86     8     2     1
Selective dynamics
Direct
  0.9992000510664152  0.9993543235573445  0.4985430817614515   T   T   T
  0.9989276505756504  0.1420033612131182  0.4993412132974459   T   T   T
  0.9989280516080820  0.2851289644234075  0.4998099822898454   T   T   T
  0.9989210694472224  0.4282451578033944  0.4994886742730791   T   T   T
  0.9992259053378163  0.5711902362055961  0.4987328247006849   T   T   T
  0.9995707360513920  0.7139311716481450  0.4985516432163208   T   T   T
  0.9995662265014886  0.8569822595587312  0.4984932430361345   T   T   T
  0.1428209662366122  1.0001013552534739  0.4988766360994028   T   T   T
  0.1421988784587134  0.1424823449061263  0.4996334706970819   T   T   T
  0.1411302659508228  0.2845451284515560  0.5006941501327186   T   T   T
  0.1411073384864166  0.4278935482315051  0.5008617933386984   T   T   T
  0.1421838068938908  0.5710304413146963  0.4999740801049606   T   T   T
  0.1428372362364871  0.7140561827821722  0.4991408686580074   T   T   T
  0.1428632710441864  0.8570981397045891  0.4987890815175790   T   T   T
  0.2859631533423904  1.0001249018085359  0.4992790436902375   T   T   T
  0.2860727022195614  0.1431243794649075  0.5001206669300746   T   T   T
  0.2852150519574116  0.2866176751339084  0.5023175830692181   T   T   T
  0.2824385711821871  0.4268687503691312  0.5041165957237679   T   T   T
  0.2851677980421279  0.5698779787100852  0.5027090624170555   T   T   T
  0.2860561620787702  0.7142440806521513  0.5006105120163568   T   T   T
  0.2859704914304647  0.8571686528832223  0.4995099680058711   T   T   T
  0.4288091820526289  1.0000689856482907  0.4996111549856746   T   T   T
  0.4294443975413971  0.1436755301001861  0.4999128392543972   T   T   T
  0.4280011263062484  0.2837402613662744  0.5010597894381580   T   T   T
  0.4279980300334773  0.7155755622419862  0.5016428937866555   T   T   T
  0.4294426267289840  0.8570791922509060  0.5001907341856690   T   T   T
  0.5713063280853201  0.9999348543035786  0.4999544240855154   T   T   T
  0.5713325079282693  0.1427629712021816  0.4997966071467982   T   T   T
  0.5747403593322719  0.2888361599351764  0.5006258373575314   T   T   T
  0.5747425738731565  0.8572858494983805  0.5010139278406938   T   T   T
  0.7141281844512846  0.0003234616189752  0.5001851335707581   T   T   T
  0.7140002713828340  0.1426853899484395  0.4996214832339120   T   T   T
  0.7141394437534887  0.2852019820966731  0.4999661853275994   T   T   T
  0.7100062831022401  0.4245029269647598  0.5019992688028347   T   T   T
  0.7158394506123570  0.5717217280574860  0.5102677513047562   T   T   T
  0.7158332100389651  0.7154560715240993  0.5103144250238751   T   T   T
  0.7100092741840636  0.8568884884527637  0.5022644104963015   T   T   T
  0.8562167793765053  0.9993919463652053  0.4997713998572936   T   T   T
  0.8564908068134809  0.1425397806614654  0.4996394697778065   T   T   T
  0.8565067345842718  0.2853357974710583  0.4995857961773974   T   T   T
  0.8562402897333390  0.4281949720694255  0.4996691365437455   T   T   T
  0.8557504477095850  0.5704853647142015  0.5000196661156409   T   T   T
  0.8568256195187858  0.7140785285153674  0.5010705678344786   T   T   T
  0.8557251227588216  0.8565834076634700  0.5000306402611613   T   T   T
  0.0468997412072901  0.0946332137119107  0.4990052078303566   T   T   T
  0.0459868827342945  0.2369762518211992  0.4998350176569041   T   T   T
  0.0459679190177435  0.3803310936891824  0.4999442356901018   T   T   T
  0.0468965158192153  0.5235901915666851  0.4992886434724405   T   T   T
  0.0472582029747564  0.6665116335930062  0.4986426377018588   T   T   T
  0.0471982510378178  0.8092664665190490  0.4985273667782172   T   T   T
  0.0472461706934252  0.9520848575537731  0.4984570459521416   T   T   T
  0.1904228328683251  0.0951080690392467  0.4995274560714077   T   T   T
  0.1893482335210163  0.2375166285551194  0.5007771823147145   T   T   T
  0.1873829272743717  0.3793623442843677  0.5017015261551776   T   T   T
  0.1893201257662332  0.5231259533054137  0.5010583817860307   T   T   T
  0.1904215002522501  0.6666334581620114  0.4999330753098365   T   T   T
  0.1906611096425427  0.8095613825343799  0.4991442102719146   T   T   T
  0.1906669946776150  0.9524411183858192  0.4989704954921942   T   T   T
  0.3339962649824624  0.0958719872538815  0.4996979212825127   T   T   T
  0.3345657730628210  0.2385884274086150  0.5012176455223724   T   T   T
  0.3287954905058613  0.3791833752752408  0.5048534132459370   T   T   T
  0.3287447616634921  0.5208910525729494  0.5050551818286997   T   T   T
  0.3345576670766484  0.6672689717157703  0.5017726804901173   T   T   T
  0.3339838730314192  0.8094264319984732  0.5000571484195047   T   T   T
  0.3333651912325351  0.9523569363054136  0.4994111304048364   T   T   T
  0.4763558095641889  0.0952926345321722  0.4997248289111111   T   T   T
  0.4770129076486961  0.2394358563986156  0.5004141404101421   T   T   T
  0.4770169773107458  0.8088980834877307  0.5008472064413280   T   T   T
  0.4763452616927474  0.9524054929261063  0.4998593799062178   T   T   T
  0.6187112168905476  0.0950365994153358  0.4997176592559506   T   T   T
  0.6194244655152538  0.2382407107864266  0.5001243709985370   T   T   T
  0.6194242331718411  0.9525777438862955  0.5004278070832662   T   T   T
  0.7616773677245673  0.0954656439851344  0.4996882621402624   T   T   T
  0.7616651672333825  0.2375777157389279  0.4996026105913378   T   T   T
  0.7608829229118814  0.3800043779103192  0.5004491974740155   T   T   T
  0.7594843904917051  0.5228319528793299  0.5036788734540295   T   T   T
  0.7611450011656624  0.6662459130038505  0.5072474641778666   T   T   T
  0.7594649131269933  0.8080008863791059  0.5037584381254815   T   T   T
  0.7608747159735596  0.9522661950159562  0.5006677447886764   T   T   T
  0.9037079119438034  0.0943326160555321  0.4995075812844064   T   T   T
  0.9039376209608321  0.2376431182650691  0.4996274288590348   T   T   T
  0.9037142134249488  0.3807302257626811  0.4994717683045039   T   T   T
  0.9038669111303549  0.5235600975638971  0.4990635410048118   T   T   T
  0.9038039320281559  0.6659436813030866  0.4995756912695426   T   T   T
  0.9037904543897399  0.8091884940806605  0.4995590601567754   T   T   T
  0.9038426906655370  0.9516392277259194  0.4990447959768799   T   T   T
  0.4662666913128738  0.3563331547380766  0.5016159632440707   T   T   T
  0.4010917113659814  0.4187575181461540  0.5064577464599492   T   T   T
  0.4010336477197991  0.5536598002296508  0.5067554254828601   T   T   T
  0.6439196019867992  0.6810190593068512  0.5203613533159409   T   T   T
  0.6439174079452508  0.5341930236995724  0.5202961675847620   T   T   T
  0.4662673512946820  0.6812595198897812  0.5022960128071732   T   T   T
  0.5518805953246515  0.6067987346454909  0.4633032614325749   T   T   T
  0.5527450104587863  0.5180879054268065  0.4633042751568685   T   T   T
  0.6199050937869764  0.3794295169151998  0.5015187430046244   T   T   T
  0.6199118297661240  0.8118624249806249  0.5018677816849086   T   T   T
  0.5125946839809269  0.5422912699219907  0.4651120913333457   T   T   F
 
  0.00000000E+00  0.00000000E+00  0.00000000E+00
  0.00000000E+00  0.00000000E+00  0.00000000E+00
  0.00000000E+00  0.00000000E+00  0.00000000E+00
  0.00000000E+00  0.00000000E+00  0.00000000E+00
  0.00000000E+00  0.00000000E+00  0.00000000E+00
  0.00000000E+00  0.00000000E+00  0.00000000E+00
  0.00000000E+00  0.00000000E+00  0.00000000E+00
  0.00000000E+00  0.00000000E+00  0.00000000E+00
  0.00000000E+00  0.00000000E+00  0.00000000E+00
  0.00000000E+00  0.00000000E+00  0.00000000E+00
  0.00000000E+00  0.00000000E+00  0.00000000E+00
  0.00000000E+00  0.00000000E+00  0.00000000E+00
  0.00000000E+00  0.00000000E+00  0.00000000E+00
  0.00000000E+00  0.00000000E+00  0.00000000E+00
  0.00000000E+00  0.00000000E+00  0.00000000E+00
  0.00000000E+00  0.00000000E+00  0.00000000E+00
  0.00000000E+00  0.00000000E+00  0.00000000E+00
  0.00000000E+00  0.00000000E+00  0.00000000E+00
  0.00000000E+00  0.00000000E+00  0.00000000E+00
  0.00000000E+00  0.00000000E+00  0.00000000E+00
  0.00000000E+00  0.00000000E+00  0.00000000E+00
  0.00000000E+00  0.00000000E+00  0.00000000E+00
  0.00000000E+00  0.00000000E+00  0.00000000E+00
  0.00000000E+00  0.00000000E+00  0.00000000E+00
  0.00000000E+00  0.00000000E+00  0.00000000E+00
  0.00000000E+00  0.00000000E+00  0.00000000E+00
  0.00000000E+00  0.00000000E+00  0.00000000E+00
  0.00000000E+00  0.00000000E+00  0.00000000E+00
  0.00000000E+00  0.00000000E+00  0.00000000E+00
  0.00000000E+00  0.00000000E+00  0.00000000E+00
  0.00000000E+00  0.00000000E+00  0.00000000E+00
  0.00000000E+00  0.00000000E+00  0.00000000E+00
  0.00000000E+00  0.00000000E+00  0.00000000E+00
  0.00000000E+00  0.00000000E+00  0.00000000E+00
  0.00000000E+00  0.00000000E+00  0.00000000E+00
  0.00000000E+00  0.00000000E+00  0.00000000E+00
  0.00000000E+00  0.00000000E+00  0.00000000E+00
  0.00000000E+00  0.00000000E+00  0.00000000E+00
  0.00000000E+00  0.00000000E+00  0.00000000E+00
  0.00000000E+00  0.00000000E+00  0.00000000E+00
  0.00000000E+00  0.00000000E+00  0.00000000E+00
  0.00000000E+00  0.00000000E+00  0.00000000E+00
  0.00000000E+00  0.00000000E+00  0.00000000E+00
  0.00000000E+00  0.00000000E+00  0.00000000E+00
  0.00000000E+00  0.00000000E+00  0.00000000E+00
  0.00000000E+00  0.00000000E+00  0.00000000E+00
  0.00000000E+00  0.00000000E+00  0.00000000E+00
  0.00000000E+00  0.00000000E+00  0.00000000E+00
  0.00000000E+00  0.00000000E+00  0.00000000E+00
  0.00000000E+00  0.00000000E+00  0.00000000E+00
  0.00000000E+00  0.00000000E+00  0.00000000E+00
  0.00000000E+00  0.00000000E+00  0.00000000E+00
  0.00000000E+00  0.00000000E+00  0.00000000E+00
  0.00000000E+00  0.00000000E+00  0.00000000E+00
  0.00000000E+00  0.00000000E+00  0.00000000E+00
  0.00000000E+00  0.00000000E+00  0.00000000E+00
  0.00000000E+00  0.00000000E+00  0.00000000E+00
  0.00000000E+00  0.00000000E+00  0.00000000E+00
  0.00000000E+00  0.00000000E+00  0.00000000E+00
  0.00000000E+00  0.00000000E+00  0.00000000E+00
  0.00000000E+00  0.00000000E+00  0.00000000E+00
  0.00000000E+00  0.00000000E+00  0.00000000E+00
  0.00000000E+00  0.00000000E+00  0.00000000E+00
  0.00000000E+00  0.00000000E+00  0.00000000E+00
  0.00000000E+00  0.00000000E+00  0.00000000E+00
  0.00000000E+00  0.00000000E+00  0.00000000E+00
  0.00000000E+00  0.00000000E+00  0.00000000E+00
  0.00000000E+00  0.00000000E+00  0.00000000E+00
  0.00000000E+00  0.00000000E+00  0.00000000E+00
  0.00000000E+00  0.00000000E+00  0.00000000E+00
  0.00000000E+00  0.00000000E+00  0.00000000E+00
  0.00000000E+00  0.00000000E+00  0.00000000E+00
  0.00000000E+00  0.00000000E+00  0.00000000E+00
  0.00000000E+00  0.00000000E+00  0.00000000E+00
  0.00000000E+00  0.00000000E+00  0.00000000E+00
  0.00000000E+00  0.00000000E+00  0.00000000E+00
  0.00000000E+00  0.00000000E+00  0.00000000E+00
  0.00000000E+00  0.00000000E+00  0.00000000E+00
  0.00000000E+00  0.00000000E+00  0.00000000E+00
  0.00000000E+00  0.00000000E+00  0.00000000E+00
  0.00000000E+00  0.00000000E+00  0.00000000E+00
  0.00000000E+00  0.00000000E+00  0.00000000E+00
  0.00000000E+00  0.00000000E+00  0.00000000E+00
  0.00000000E+00  0.00000000E+00  0.00000000E+00
  0.00000000E+00  0.00000000E+00  0.00000000E+00
  0.00000000E+00  0.00000000E+00  0.00000000E+00
  0.00000000E+00  0.00000000E+00  0.00000000E+00
  0.00000000E+00  0.00000000E+00  0.00000000E+00
  0.00000000E+00  0.00000000E+00  0.00000000E+00
  0.00000000E+00  0.00000000E+00  0.00000000E+00
  0.00000000E+00  0.00000000E+00  0.00000000E+00
  0.00000000E+00  0.00000000E+00  0.00000000E+00
  0.00000000E+00  0.00000000E+00  0.00000000E+00
  0.00000000E+00  0.00000000E+00  0.00000000E+00
  0.00000000E+00  0.00000000E+00  0.00000000E+00
  0.00000000E+00  0.00000000E+00  0.00000000E+00
  0.00000000E+00  0.00000000E+00  0.00000000E+00
