C    H    N    O                        
    1.000000000000000     
    17.2710380553999983    0.0000000000000000    0.0000000000000000
    -8.6355190276999991   14.9571577057000002    0.0000000000000000
     0.0000000000000000    0.0000000000000000   15.0000000000000000
   C    H    N    O 
    87     9     1     1
Selective dynamics
Direct
  0.9998718741302952  0.0001333778637194  0.5006097577105664   T   T   T
  0.9996813193926493  0.1428663226548306  0.5000368246472982   T   T   T
 -0.0000061151109102  0.2859203582998760  0.4997497796805019   T   T   T
  0.0003068954219572  0.4288533380114119  0.4997372928262161   T   T   T
  0.0005529999509504  0.5717541056163414  0.5001525583864086   T   T   T
  0.0011304583585126  0.7148526932080372  0.5006867973145464   T   T   T
  0.0008015952040950  0.8578712074241421  0.5008956333151303   T   T   T
  0.1431680710156941  0.0007226902960427  0.5011719241151883   T   T   T
  0.1428987652487161  0.1434712364937219  0.5005901517826189   T   T   T
  0.1427040626163865  0.2861414274432359  0.5005703877844606   T   T   T
  0.1433426793357508  0.4295928062797907  0.5004964627463869   T   T   T
  0.1436170245002017  0.5719394394518185  0.5005495829734120   T   T   T
  0.1435352684769940  0.7146577145707104  0.5010261311491635   T   T   T
  0.1432744144973702  0.8577277020629883  0.5012742903469950   T   T   T
  0.2857697261572330  0.0002935247314374  0.5004301392939711   T   T   T
  0.2858501919495141  0.1431381166542852  0.5000963614101991   T   T   T
  0.2863093760888926  0.2877515150533009  0.5005867495755875   T   T   T
  0.2855835278364257  0.4294647931183670  0.5021781584822865   T   T   T
  0.2882154527387611  0.5727728962558321  0.5012442154235305   T   T   T
  0.2863996797109581  0.7154960338743869  0.5007720497003402   T   T   T
  0.2855606524635455  0.8579159176981974  0.5006657268880320   T   T   T
  0.4286992321206470  0.0001093335232414  0.4993047624381806   T   T   T
  0.4285777277638774  0.1426741371858711  0.4983097614764503   T   T   T
  0.4271452749782269  0.2824754969049523  0.4959789125461372   T   T   T
  0.4277810759714714  0.8569991827105878  0.4998382754896323   T   T   T
  0.5709826332614782  0.9996720987491168  0.4985871594494213   T   T   T
  0.5714624173382983  0.1423977299744836  0.4976599314890587   T   T   T
  0.5724915663020060  0.2858597268059143  0.4958487845654585   T   T   T
  0.5700528610532153  0.8555914333149680  0.4991399409435698   T   T   T
  0.7132236195906048  0.9989333930543179  0.4987188321214648   T   T   T
  0.7142982728375586  0.1425401089046024  0.4980390481206479   T   T   T
  0.7145517060916332  0.2855544154564066  0.4973820498171292   T   T   T
  0.7141089059001480  0.4276806014069421  0.4967070432714423   T   T   T
  0.7178210238236820  0.5733715127576607  0.4974636678751790   T   T   T
  0.7172994270672790  0.7148912707542896  0.4981154447160705   T   T   T
  0.7121199744020832  0.8559840274603910  0.4990596062314151   T   T   T
  0.8565364446265967  0.9996014362057065  0.4995151826769703   T   T   T
  0.8566519974256352  0.1425000813581564  0.4990026939416079   T   T   T
  0.8571526578779128  0.2855303732890078  0.4986735421370028   T   T   T
  0.8576558270153698  0.4286073466149255  0.4986647257277567   T   T   T
  0.8580044272755620  0.5719485320922078  0.4989229808164697   T   T   T
  0.8591729035351250  0.7152400812853350  0.4995114899251480   T   T   T
  0.8571703496178216  0.8569252581600924  0.4998756822926698   T   T   T
  0.0476102229801458  0.0955190505187687  0.5004726733218160   T   T   T
  0.0472080928307716  0.2380694711234205  0.5001253363846696   T   T   T
  0.0477058363225925  0.3813472594856400  0.4999602204183528   T   T   T
  0.0482849115059179  0.5242103153344999  0.5001958422821600   T   T   T
  0.0483312624075964  0.6670931107176925  0.5007354967510164   T   T   T
  0.0481449486147427  0.8100443228586156  0.5011025594497409   T   T   T
  0.0479095819889472  0.9528572147362174  0.5010543931836900   T   T   T
  0.1905513412477737  0.0956269893124813  0.5008734066999123   T   T   T
  0.1904519700882358  0.2387822316932670  0.5005181347062155   T   T   T
  0.1899126629647950  0.3813482314279665  0.5008922149179784   T   T   T
  0.1918016672485275  0.5250769023391115  0.5006219369812965   T   T   T
  0.1910624274202324  0.6672797697627524  0.5008764121139128   T   T   T
  0.1907359910374206  0.8101067780400860  0.5011187968451638   T   T   T
  0.1907827899795399  0.9528768969220150  0.5011175902170016   T   T   T
  0.3334936663710857  0.0956533951190247  0.4996342370430649   T   T   T
  0.3342724741310096  0.2384041909289168  0.4989498561729760   T   T   T
  0.3309800668437570  0.3807282417993695  0.5024681130851210   T   T   T
  0.3323796611775408  0.5241118024535050  0.5027347151018514   T   T   T
  0.3373296104540001  0.6710314114064547  0.5007007060867863   T   T   T
  0.3330870053345404  0.8102412960304238  0.5004545909725977   T   T   T
  0.3332723314765500  0.9528140386198587  0.5001819676405252   T   T   T
  0.4763403095040203  0.0950463387285401  0.4983985042614847   T   T   T
  0.4756776961337331  0.2376634567127117  0.4964349314206390   T   T   T
  0.4723944035201664  0.8064688892195844  0.4996617488193579   T   T   T
  0.4760353548833311  0.9524221420064738  0.4992180347791128   T   T   T
  0.6188106040317325  0.0947895162985977  0.4980054145086772   T   T   T
  0.6194345429244762  0.2377810348629267  0.4969011130044308   T   T   T
  0.6212268013721830  0.3791559685986439  0.4953381956995052   T   T   T
  0.6187003024295233  0.8109121773433350  0.4991887602936638   T   T   T
  0.6178187050983415  0.9512106393068711  0.4987413486260669   T   T   T
  0.7614483332250914  0.0947187369245080  0.4985381145207836   T   T   T
  0.7621026539462584  0.2377137055728029  0.4980006873947856   T   T   T
  0.7623722775120637  0.3807330245183475  0.4975864497092203   T   T   T
  0.7621973713711204  0.5249576375374525  0.4976077107359747   T   T   T
  0.7638707977533186  0.6674144091514539  0.4983590311512139   T   T   T
  0.7611729092767594  0.8076691794273150  0.4990627904623373   T   T   T
  0.7608939496110719  0.9515162484524575  0.4990593088693662   T   T   T
  0.9042233621057056  0.0946808880726046  0.4995235952393078   T   T   T
  0.9045584309137935  0.2378782968207389  0.4991217709429717   T   T   T
  0.9049544251313343  0.3811141327971884  0.4990472789374678   T   T   T
  0.9053490618840703  0.5241733227111594  0.4992853606412178   T   T   T
  0.9059010016763883  0.6671068240576017  0.4997874432439127   T   T   T
  0.9055103741401438  0.8100958351692202  0.5001762481829458   T   T   T
  0.9045283570751391  0.9521196708820325  0.5001034041718002   T   T   T
  0.4632929592661656  0.3549145145558428  0.4926705401097754   T   T   T
  0.4036934860824812  0.4191375463991394  0.5035194906949647   T   T   T
  0.4052958512725028  0.5606282311876271  0.5052408261349771   T   T   T
  0.6445983587128226  0.6756265949690775  0.4965513165975968   T   T   T
  0.6451337157635414  0.5399443850902065  0.4964302314198354   T   T   T
  0.5851411948953562  0.4155672993578034  0.4939987469161665   T   T   T
  0.5798823356087909  0.7382580975387172  0.4995198378830685   T   T   T
  0.4683410014689002  0.5341984307191194  0.3766611424285132   T   T   T
  0.5611999873803040  0.5535894677089137  0.3445250927162192   T   T   T
  0.4273191283249792  0.7159888120113025  0.4999864493555816   T   T   T
  0.5209157634184668  0.5315251116279324  0.3953361829999977   T   T   F
 
  0.00000000E+00  0.00000000E+00  0.00000000E+00
  0.00000000E+00  0.00000000E+00  0.00000000E+00
  0.00000000E+00  0.00000000E+00  0.00000000E+00
  0.00000000E+00  0.00000000E+00  0.00000000E+00
  0.00000000E+00  0.00000000E+00  0.00000000E+00
  0.00000000E+00  0.00000000E+00  0.00000000E+00
  0.00000000E+00  0.00000000E+00  0.00000000E+00
  0.00000000E+00  0.00000000E+00  0.00000000E+00
  0.00000000E+00  0.00000000E+00  0.00000000E+00
  0.00000000E+00  0.00000000E+00  0.00000000E+00
  0.00000000E+00  0.00000000E+00  0.00000000E+00
  0.00000000E+00  0.00000000E+00  0.00000000E+00
  0.00000000E+00  0.00000000E+00  0.00000000E+00
  0.00000000E+00  0.00000000E+00  0.00000000E+00
  0.00000000E+00  0.00000000E+00  0.00000000E+00
  0.00000000E+00  0.00000000E+00  0.00000000E+00
  0.00000000E+00  0.00000000E+00  0.00000000E+00
  0.00000000E+00  0.00000000E+00  0.00000000E+00
  0.00000000E+00  0.00000000E+00  0.00000000E+00
  0.00000000E+00  0.00000000E+00  0.00000000E+00
  0.00000000E+00  0.00000000E+00  0.00000000E+00
  0.00000000E+00  0.00000000E+00  0.00000000E+00
  0.00000000E+00  0.00000000E+00  0.00000000E+00
  0.00000000E+00  0.00000000E+00  0.00000000E+00
  0.00000000E+00  0.00000000E+00  0.00000000E+00
  0.00000000E+00  0.00000000E+00  0.00000000E+00
  0.00000000E+00  0.00000000E+00  0.00000000E+00
  0.00000000E+00  0.00000000E+00  0.00000000E+00
  0.00000000E+00  0.00000000E+00  0.00000000E+00
  0.00000000E+00  0.00000000E+00  0.00000000E+00
  0.00000000E+00  0.00000000E+00  0.00000000E+00
  0.00000000E+00  0.00000000E+00  0.00000000E+00
  0.00000000E+00  0.00000000E+00  0.00000000E+00
  0.00000000E+00  0.00000000E+00  0.00000000E+00
  0.00000000E+00  0.00000000E+00  0.00000000E+00
  0.00000000E+00  0.00000000E+00  0.00000000E+00
  0.00000000E+00  0.00000000E+00  0.00000000E+00
  0.00000000E+00  0.00000000E+00  0.00000000E+00
  0.00000000E+00  0.00000000E+00  0.00000000E+00
  0.00000000E+00  0.00000000E+00  0.00000000E+00
  0.00000000E+00  0.00000000E+00  0.00000000E+00
  0.00000000E+00  0.00000000E+00  0.00000000E+00
  0.00000000E+00  0.00000000E+00  0.00000000E+00
  0.00000000E+00  0.00000000E+00  0.00000000E+00
  0.00000000E+00  0.00000000E+00  0.00000000E+00
  0.00000000E+00  0.00000000E+00  0.00000000E+00
  0.00000000E+00  0.00000000E+00  0.00000000E+00
  0.00000000E+00  0.00000000E+00  0.00000000E+00
  0.00000000E+00  0.00000000E+00  0.00000000E+00
  0.00000000E+00  0.00000000E+00  0.00000000E+00
  0.00000000E+00  0.00000000E+00  0.00000000E+00
  0.00000000E+00  0.00000000E+00  0.00000000E+00
  0.00000000E+00  0.00000000E+00  0.00000000E+00
  0.00000000E+00  0.00000000E+00  0.00000000E+00
  0.00000000E+00  0.00000000E+00  0.00000000E+00
  0.00000000E+00  0.00000000E+00  0.00000000E+00
  0.00000000E+00  0.00000000E+00  0.00000000E+00
  0.00000000E+00  0.00000000E+00  0.00000000E+00
  0.00000000E+00  0.00000000E+00  0.00000000E+00
  0.00000000E+00  0.00000000E+00  0.00000000E+00
  0.00000000E+00  0.00000000E+00  0.00000000E+00
  0.00000000E+00  0.00000000E+00  0.00000000E+00
  0.00000000E+00  0.00000000E+00  0.00000000E+00
  0.00000000E+00  0.00000000E+00  0.00000000E+00
  0.00000000E+00  0.00000000E+00  0.00000000E+00
  0.00000000E+00  0.00000000E+00  0.00000000E+00
  0.00000000E+00  0.00000000E+00  0.00000000E+00
  0.00000000E+00  0.00000000E+00  0.00000000E+00
  0.00000000E+00  0.00000000E+00  0.00000000E+00
  0.00000000E+00  0.00000000E+00  0.00000000E+00
  0.00000000E+00  0.00000000E+00  0.00000000E+00
  0.00000000E+00  0.00000000E+00  0.00000000E+00
  0.00000000E+00  0.00000000E+00  0.00000000E+00
  0.00000000E+00  0.00000000E+00  0.00000000E+00
  0.00000000E+00  0.00000000E+00  0.00000000E+00
  0.00000000E+00  0.00000000E+00  0.00000000E+00
  0.00000000E+00  0.00000000E+00  0.00000000E+00
  0.00000000E+00  0.00000000E+00  0.00000000E+00
  0.00000000E+00  0.00000000E+00  0.00000000E+00
  0.00000000E+00  0.00000000E+00  0.00000000E+00
  0.00000000E+00  0.00000000E+00  0.00000000E+00
  0.00000000E+00  0.00000000E+00  0.00000000E+00
  0.00000000E+00  0.00000000E+00  0.00000000E+00
  0.00000000E+00  0.00000000E+00  0.00000000E+00
  0.00000000E+00  0.00000000E+00  0.00000000E+00
  0.00000000E+00  0.00000000E+00  0.00000000E+00
  0.00000000E+00  0.00000000E+00  0.00000000E+00
  0.00000000E+00  0.00000000E+00  0.00000000E+00
  0.00000000E+00  0.00000000E+00  0.00000000E+00
  0.00000000E+00  0.00000000E+00  0.00000000E+00
  0.00000000E+00  0.00000000E+00  0.00000000E+00
  0.00000000E+00  0.00000000E+00  0.00000000E+00
  0.00000000E+00  0.00000000E+00  0.00000000E+00
  0.00000000E+00  0.00000000E+00  0.00000000E+00
  0.00000000E+00  0.00000000E+00  0.00000000E+00
  0.00000000E+00  0.00000000E+00  0.00000000E+00
  0.00000000E+00  0.00000000E+00  0.00000000E+00
  0.00000000E+00  0.00000000E+00  0.00000000E+00
