C    H    N    O 
    1.000000000000000     
  17.2710380553999983   0.0000000000000000   0.0000000000000000
  -8.6355190276999991  14.9571577057000002   0.0000000000000000
   0.0000000000000000   0.0000000000000000  15.0000000000000000
C    H    N    O 
87  9  1  1  
Selective dynamics
Direct
  0.9999770618897810  0.0001596567837585  0.5017655869787565 T T T
  0.9998294801274440  0.1429220769532563  0.5000440621805960 T T T
  0.0000845233004210  0.2859694108501671  0.4991685094055435 T T T
  0.0004046126936232  0.4288836207795904  0.4991972758279561 T T T
  0.0006501393632852  0.5717610969734461  0.5007701402182679 T T T
  0.0012348176925321  0.7148755747522717  0.5025853886009715 T T T
  0.0009212910635185  0.8579279419147353  0.5029962419191526 T T T
  0.1432773326727886  0.0007486355081511  0.5018983378966595 T T T
  0.1430137485178114  0.1435048028004485  0.5004884205772085 T T T
  0.1428066941883857  0.2861593750863795  0.5001112204662622 T T T
  0.1434282932347473  0.4296090970193162  0.4997524930719094 T T T
  0.1436719432654752  0.5719529919305313  0.5000154273181259 T T T
  0.1436392440593700  0.7146966082133573  0.5014479725035424 T T T
  0.1433883518389560  0.8577613212074168  0.5022764818287347 T T T
  0.2858986375481467  0.0003414193601465  0.5004233284957617 T T T
  0.2859504538727698  0.1431409600189228  0.4996886099166059 T T T
  0.2864373168648207  0.2877621108328455  0.5001521558562402 T T T
  0.2856737868120691  0.4294846110704964  0.5021332426544067 T T T
  0.2882811662069364  0.5728241676905580  0.5006815315158007 T T T
  0.2864818624813597  0.7155269912450142  0.5001223170699617 T T T
  0.2856796413935243  0.8579537896566427  0.5004830359740808 T T T
  0.4287936834236323  0.0001392618050784  0.4987773301845534 T T T
  0.4286748532958202  0.1426559471318415  0.4978680345921639 T T T
  0.4272280050377993  0.2824337710284405  0.4949349264475390 T T T
  0.4279056152379777  0.8571083597833223  0.4990784008606927 T T T
  0.5711198417280060  0.9997180731712320  0.4979881707456694 T T T
  0.5715968070917405  0.1424567757912960  0.4972594871633734 T T T
  0.5725676043094613  0.2858878048922681  0.4961205308130244 T T T
  0.5701751356999825  0.8556500010532281  0.4984543078696360 T T T
  0.7133782471606898  0.9990605954353848  0.4985414101477812 T T T
  0.7143802901708010  0.1425633190698793  0.4977034508461226 T T T
  0.7146597275499982  0.2855852854238292  0.4974256630278731 T T T
  0.7142147819554141  0.4277293833701871  0.4978065711397766 T T T
  0.7179146036312815  0.5734374214817253  0.4985422228664736 T T T
  0.7174263079780875  0.7149258463607471  0.4989240593843097 T T T
  0.7123163577871349  0.8560809590116834  0.4992569616082984 T T T
  0.8566563913793311  0.9996634883223464  0.5001089102536133 T T T
  0.8568054303806149  0.1425536620614229  0.4987999404563098 T T T
  0.8572575145025156  0.2855733602514209  0.4983031773087813 T T T
  0.8577530707978924  0.4286403947550644  0.4989375914194703 T T T
  0.8581108889201894  0.5719821427282255  0.5006820108893175 T T T
  0.8592784564803920  0.7152559292394978  0.5018002759581601 T T T
  0.8573202999884424  0.8569971996335138  0.5016036187307390 T T T
  0.0477225891480035  0.0955415952479245  0.5008020795627870 T T T
  0.0473084004947251  0.2381211293748842  0.4997247475582172 T T T
  0.0477971397835333  0.3813722266581967  0.4992191731403831 T T T
  0.0483617435397333  0.5242229564494216  0.4999421844046326 T T T
  0.0484231481210169  0.6671092943491850  0.5018012611433160 T T T
  0.0482728003080690  0.8100851988342117  0.5029853633435967 T T T
  0.0480018441682669  0.9528804785816820  0.5024580851508206 T T T
  0.1907062034900544  0.0956691743772484  0.5009267512670502 T T T
  0.1905647783337382  0.2387816466931285  0.5001211762652717 T T T
  0.1900019269421679  0.3813623112752770  0.5003655380933654 T T T
  0.1918606787328096  0.5251020608413040  0.4998521102650764 T T T
  0.1911990289644984  0.6673225160195018  0.5005724184670534 T T T
  0.1908271969453943  0.8101260516512956  0.5015339507849291 T T T
  0.1909009801371463  0.9529186914675776  0.5017281934454997 T T T
  0.3335754947724328  0.0956445110240508  0.4992796792329243 T T T
  0.3343791914872521  0.2384118790362320  0.4982219359062125 T T T
  0.3310656175113867  0.3807179685279012  0.5025216716530903 T T T
  0.3324281530059885  0.5241303959894409  0.5028407067481264 T T T
  0.3374314710740599  0.6710740706950107  0.4999493134184668 T T T
  0.3331801912895715  0.8103006479177158  0.4998667522871406 T T T
  0.3334014225745860  0.9528619078900346  0.4999051045065512 T T T
  0.4764124307866011  0.0950846173667838  0.4979632738595547 T T T
  0.4757772184770362  0.2376694320335132  0.4959981863604830 T T T
  0.4725405852081000  0.8065224287056207  0.4987745884857797 T T T
  0.4761257764555091  0.9524552387492804  0.4985359187575745 T T T
  0.6189551435006128  0.0948272194876556  0.4975339425896443 T T T
  0.6195366868182856  0.2377766635379736  0.4968391030896174 T T T
  0.6213026016151055  0.3791589284724388  0.4966853313396349 T T T
  0.6188722993221287  0.8110219607680471  0.4987398901516700 T T T
  0.6179582894397548  0.9513326497168670  0.4982635583837777 T T T
  0.7616049487513479  0.0947857059681516  0.4983031891088772 T T T
  0.7621831719789894  0.2377501664968214  0.4977590793118957 T T T
  0.7624922176569484  0.3807930704125637  0.4980300917132649 T T T
  0.7622864728679971  0.5249996291374958  0.4990818034811241 T T T
  0.7639999000912835  0.6674594386927177  0.4998762348714574 T T T
  0.7612983681212327  0.8077243860985953  0.5000401811282280 T T T
  0.7610659014481069  0.9516326057650708  0.4993201713654712 T T T
  0.9043439208941914  0.0947398465882061  0.4996462530466020 T T T
  0.9046734797524740  0.2379163888963641  0.4986965311364296 T T T
  0.9050530798673884  0.3811207997471813  0.4987475653234729 T T T
  0.9054346683232922  0.5242027201582503  0.5002204833246394 T T T
  0.9060118002486472  0.6671403131749767  0.5020315093537840 T T T
  0.9056224028228212  0.8101016090337271  0.5024661045574430 T T T
  0.9046548124411812  0.9521473339088488  0.5013823868096513 T T T
  0.4633801545769651  0.3548550732300467  0.4912699976429900 T T T
  0.4037611454208289  0.4190903779957053  0.5040723661699492 T T T
  0.4053106004152853  0.5606190437699313  0.5058451210437612 T T T
  0.6447541775872604  0.6756503838155498  0.4964172930390830 T T T
  0.6452399090172219  0.5400185294969662  0.4966311950472554 T T T
  0.5852278744259766  0.4155937713792441  0.4965446880104091 T T T
  0.5800121670271353  0.7383479119548187  0.4988146015389616 T T T
  0.4647489485256651  0.5325955194452472  0.3759840094259216 T T T
  0.5564962156053730  0.5499647416929304  0.3425083998639271 T T T
  0.4274383691677502  0.7160639344577929  0.4991187595756353 T T T
  0.5189225229221170  0.5333838864942747  0.3953361829999977 T T F
