C    H    N    O                        
   1.00000000000000     
    17.2710380553999983    0.0000000000000000    0.0000000000000000
    -8.6355190276999991   14.9571577057000002    0.0000000000000000
     0.0000000000000000    0.0000000000000000   15.0000000000000000
  C/253f7b50bb8d  H/030f79b5d3ab  N/e053789ff3a6  O/818f92134a0a
              84               6               4               1
Selective dynamics
Direct
  0.0014069995433914  0.0006354445160213  0.4996919717092894   T   T   T
  0.0008821200991989  0.1431010609668206  0.4997698556901256   T   T   T
  0.0005301593352485  0.2859468519544492  0.4997992073998105   T   T   T
  0.0008809291179830  0.4291308635509026  0.4998695329249117   T   T   T
  0.0013831133966775  0.5721009319787811  0.4998662470988791   T   T   T
  0.0017563743558782  0.7149533126652656  0.4998179384697821   T   T   T
  0.0017940406846861  0.8581982911855448  0.4997685120980933   T   T   T
  0.1451985259874746  0.0018128044561720  0.5000872550152948   T   T   T
  0.1447359264682930  0.1444934998198164  0.5002853100270244   T   T   T
  0.1428627548410404  0.2859384908969460  0.5004988304521376   T   T   T
  0.1428382135093145  0.4283033847198752  0.5005147557814809   T   T   T
  0.1447392948815391  0.5715893845170044  0.5004601202722583   T   T   T
  0.1451729827519515  0.7147213573127686  0.5002022318250425   T   T   T
  0.1451000238792588  0.8582288860825926  0.4999960811262270   T   T   T
  0.2880774761150846  0.0018529198278898  0.5002515871101991   T   T   T
  0.2883687609545547  0.1465411949503448  0.5007107395874897   T   T   T
  0.2876156281690285  0.2926580808220010  0.5015674091457427   T   T   T
  0.2854077743118637  0.4283929054616493  0.5021083934314916   T   T   T
  0.2876511423575181  0.5663454321715591  0.5016542375425672   T   T   T
  0.2883830130551956  0.7132492486577249  0.5008431223565921   T   T   T
  0.2880827066251541  0.8576311945416393  0.5002205681742993   T   T   T
  0.4306054364069425  0.0009856676063009  0.5002400418400015   T   T   T
  0.4312562640054978  0.1456353102188075  0.5003576285684304   T   T   T
  0.4304903350414904  0.2872378592788820  0.5004796653632937   T   T   T
  0.4304686787262924  0.7146018897219477  0.5006186525124789   T   T   T
  0.4312931346054256  0.8570183352517518  0.5004312180731816   T   T   T
  0.5729177897624922  0.0005529524238170  0.5000754567810972   T   T   T
  0.5729071808070145  0.1437199995620873  0.4999920464770256   T   T   T
  0.5765885264617694  0.2902282474684412  0.4999880356350488   T   T   T
  0.5766170562655901  0.8577022187513421  0.5001667937553762   T   T   T
  0.7158086161529909  0.0009598266789368  0.4998232361007382   T   T   T
  0.7156457155441274  0.1434774940833492  0.4997523468198537   T   T   T
  0.7158298982844400  0.2861822033150361  0.4997443800202319   T   T   T
  0.7118469640235148  0.4256668268874080  0.5000316808976706   T   T   T
  0.7161230125058253  0.5723883816063520  0.5012495819690415   T   T   T
  0.7161417342733003  0.7150538390857264  0.5013370160026582   T   T   T
  0.7118851527498364  0.8575221817678909  0.5001203708697588   T   T   T
  0.8581849553402989  0.0002424405575923  0.4996328027344958   T   T   T
  0.8581754734409373  0.1433079417801864  0.4995862800034061   T   T   T
  0.8581796281426008  0.2861796032942863  0.4996451718026762   T   T   T
  0.8581789392194494  0.4292628508176861  0.4997332085681165   T   T   T
  0.8573944574446486  0.5715044919443883  0.4998261588448258   T   T   T
  0.8587905682499439  0.7150722407071157  0.5000546551414971   T   T   T
  0.8574281817749281  0.8572498942630915  0.4998558976998098   T   T   T
  0.0492021836537830  0.0960898515223150  0.4998651021766705   T   T   T
  0.0477370043900933  0.2381136170593194  0.4999608906938988   T   T   T
  0.0477467446147983  0.3809899834711388  0.5000040943195145   T   T   T
  0.0491872324248277  0.5244507504270075  0.5000304532979953   T   T   T
  0.0495477123304227  0.6674396773158691  0.4999473403387995   T   T   T
  0.0494399937957297  0.8103928483406548  0.4998502727509191   T   T   T
  0.0495894672988584  0.9534892462227162  0.4997967908416427   T   T   T
  0.1928149591523933  0.0972563145663869  0.5004148583478596   T   T   T
  0.1917036023952932  0.2400040905657761  0.5007052148613482   T   T   T
  0.1897599969185180  0.3805731967056758  0.5008529084218623   T   T   T
  0.1917224318729751  0.5230681291847432  0.5007891192878589   T   T   T
  0.1928044247390375  0.6669161670669013  0.5006040694591860   T   T   T
  0.1928001179204912  0.8103411135736565  0.5001304256574812   T   T   T
  0.1928118628603244  0.9538233157626124  0.5001225707855994   T   T   T
  0.3358865776696831  0.0982648525087839  0.5004382092398885   T   T   T
  0.3369091690123440  0.2431066295336990  0.5010706947243122   T   T   T
  0.3368942720395367  0.6651917987973448  0.5011888974471503   T   T   T
  0.3358944585750478  0.8090426220921501  0.5004984332697333   T   T   T
  0.3352219409889514  0.9533211785129154  0.5002220650499183   T   T   T
  0.4779217290549482  0.0965039852803073  0.5001989378002776   T   T   T
  0.4787308124485534  0.2416044573794593  0.5002396299402818   T   T   T
  0.4787472767815757  0.8084832930983694  0.5004030082091973   T   T   T
  0.4779413939306920  0.9528193406687322  0.5002407138794212   T   T   T
  0.6202196949995411  0.0957872596791702  0.4999295166946567   T   T   T
  0.6210566002374875  0.2392944981857852  0.4998809257955514   T   T   T
  0.6210699997572746  0.9531061736419986  0.5000280801682422   T   T   T
  0.7633182816010375  0.0961878114914683  0.4997034969545950   T   T   T
  0.7633376091821447  0.2384443230379532  0.4996734048624774   T   T   T
  0.7626955598059411  0.3810215840977662  0.4998048708235672   T   T   T
  0.7608480774487205  0.5239592572318585  0.5002670515164525   T   T   T
  0.7629221137647022  0.6671212392728876  0.5009025250819690   T   T   T
  0.7608863495954381  0.8082309182962888  0.5003714476243957   T   T   T
  0.7627194953837630  0.9530131960251751  0.4998091410977992   T   T   T
  0.9056336809258738  0.0952821590652917  0.4996023295612986   T   T   T
  0.9054962652393499  0.2383872293892253  0.4996094088012981   T   T   T
  0.9056268213615937  0.3816634859401731  0.4997041073700856   T   T   T
  0.9058403984451573  0.5246287995332466  0.4997264269742203   T   T   T
  0.9058679803466561  0.6670273783212437  0.4998303889880162   T   T   T
  0.9059050308621082  0.8102180656333147  0.4998514155936817   T   T   T
  0.9058748633166260  0.9525859042493323  0.4996258262094457   T   T   T
  0.4686284631455493  0.3599450616862967  0.4997487872651760   T   T   T
  0.6432199736353681  0.6773168970249870  0.5027888226461030   T   T   T
  0.6431936475272764  0.5372217664172254  0.5027140310344294   T   T   T
  0.4685641172043589  0.6799855234229071  0.4998925009284036   T   T   T
  0.4635499201690436  0.5599611352541274  0.5269784248860603   T   T   T
  0.4629402735986687  0.4743223683151356  0.5267377870285443   T   T   T
  0.3316966946430924  0.3829789769057044  0.5027895673234681   T   T   T
  0.3317294999592306  0.5201011808373934  0.5028289790679992   T   T   T
  0.6218609125025125  0.3805615850414554  0.5000143762059253   T   T   T
  0.6218886129318477  0.8126405158079990  0.5001874034921840   T   T   T
  0.5060316098710516  0.5382982904098412  0.5348879996666724   T   T   F
 
  0.00000000E+00  0.00000000E+00  0.00000000E+00
  0.00000000E+00  0.00000000E+00  0.00000000E+00
  0.00000000E+00  0.00000000E+00  0.00000000E+00
  0.00000000E+00  0.00000000E+00  0.00000000E+00
  0.00000000E+00  0.00000000E+00  0.00000000E+00
  0.00000000E+00  0.00000000E+00  0.00000000E+00
  0.00000000E+00  0.00000000E+00  0.00000000E+00
  0.00000000E+00  0.00000000E+00  0.00000000E+00
  0.00000000E+00  0.00000000E+00  0.00000000E+00
  0.00000000E+00  0.00000000E+00  0.00000000E+00
  0.00000000E+00  0.00000000E+00  0.00000000E+00
  0.00000000E+00  0.00000000E+00  0.00000000E+00
  0.00000000E+00  0.00000000E+00  0.00000000E+00
  0.00000000E+00  0.00000000E+00  0.00000000E+00
  0.00000000E+00  0.00000000E+00  0.00000000E+00
  0.00000000E+00  0.00000000E+00  0.00000000E+00
  0.00000000E+00  0.00000000E+00  0.00000000E+00
  0.00000000E+00  0.00000000E+00  0.00000000E+00
  0.00000000E+00  0.00000000E+00  0.00000000E+00
  0.00000000E+00  0.00000000E+00  0.00000000E+00
  0.00000000E+00  0.00000000E+00  0.00000000E+00
  0.00000000E+00  0.00000000E+00  0.00000000E+00
  0.00000000E+00  0.00000000E+00  0.00000000E+00
  0.00000000E+00  0.00000000E+00  0.00000000E+00
  0.00000000E+00  0.00000000E+00  0.00000000E+00
  0.00000000E+00  0.00000000E+00  0.00000000E+00
  0.00000000E+00  0.00000000E+00  0.00000000E+00
  0.00000000E+00  0.00000000E+00  0.00000000E+00
  0.00000000E+00  0.00000000E+00  0.00000000E+00
  0.00000000E+00  0.00000000E+00  0.00000000E+00
  0.00000000E+00  0.00000000E+00  0.00000000E+00
  0.00000000E+00  0.00000000E+00  0.00000000E+00
  0.00000000E+00  0.00000000E+00  0.00000000E+00
  0.00000000E+00  0.00000000E+00  0.00000000E+00
  0.00000000E+00  0.00000000E+00  0.00000000E+00
  0.00000000E+00  0.00000000E+00  0.00000000E+00
  0.00000000E+00  0.00000000E+00  0.00000000E+00
  0.00000000E+00  0.00000000E+00  0.00000000E+00
  0.00000000E+00  0.00000000E+00  0.00000000E+00
  0.00000000E+00  0.00000000E+00  0.00000000E+00
  0.00000000E+00  0.00000000E+00  0.00000000E+00
  0.00000000E+00  0.00000000E+00  0.00000000E+00
  0.00000000E+00  0.00000000E+00  0.00000000E+00
  0.00000000E+00  0.00000000E+00  0.00000000E+00
  0.00000000E+00  0.00000000E+00  0.00000000E+00
  0.00000000E+00  0.00000000E+00  0.00000000E+00
  0.00000000E+00  0.00000000E+00  0.00000000E+00
  0.00000000E+00  0.00000000E+00  0.00000000E+00
  0.00000000E+00  0.00000000E+00  0.00000000E+00
  0.00000000E+00  0.00000000E+00  0.00000000E+00
  0.00000000E+00  0.00000000E+00  0.00000000E+00
  0.00000000E+00  0.00000000E+00  0.00000000E+00
  0.00000000E+00  0.00000000E+00  0.00000000E+00
  0.00000000E+00  0.00000000E+00  0.00000000E+00
  0.00000000E+00  0.00000000E+00  0.00000000E+00
  0.00000000E+00  0.00000000E+00  0.00000000E+00
  0.00000000E+00  0.00000000E+00  0.00000000E+00
  0.00000000E+00  0.00000000E+00  0.00000000E+00
  0.00000000E+00  0.00000000E+00  0.00000000E+00
  0.00000000E+00  0.00000000E+00  0.00000000E+00
  0.00000000E+00  0.00000000E+00  0.00000000E+00
  0.00000000E+00  0.00000000E+00  0.00000000E+00
  0.00000000E+00  0.00000000E+00  0.00000000E+00
  0.00000000E+00  0.00000000E+00  0.00000000E+00
  0.00000000E+00  0.00000000E+00  0.00000000E+00
  0.00000000E+00  0.00000000E+00  0.00000000E+00
  0.00000000E+00  0.00000000E+00  0.00000000E+00
  0.00000000E+00  0.00000000E+00  0.00000000E+00
  0.00000000E+00  0.00000000E+00  0.00000000E+00
  0.00000000E+00  0.00000000E+00  0.00000000E+00
  0.00000000E+00  0.00000000E+00  0.00000000E+00
  0.00000000E+00  0.00000000E+00  0.00000000E+00
  0.00000000E+00  0.00000000E+00  0.00000000E+00
  0.00000000E+00  0.00000000E+00  0.00000000E+00
  0.00000000E+00  0.00000000E+00  0.00000000E+00
  0.00000000E+00  0.00000000E+00  0.00000000E+00
  0.00000000E+00  0.00000000E+00  0.00000000E+00
  0.00000000E+00  0.00000000E+00  0.00000000E+00
  0.00000000E+00  0.00000000E+00  0.00000000E+00
  0.00000000E+00  0.00000000E+00  0.00000000E+00
  0.00000000E+00  0.00000000E+00  0.00000000E+00
  0.00000000E+00  0.00000000E+00  0.00000000E+00
  0.00000000E+00  0.00000000E+00  0.00000000E+00
  0.00000000E+00  0.00000000E+00  0.00000000E+00
  0.00000000E+00  0.00000000E+00  0.00000000E+00
  0.00000000E+00  0.00000000E+00  0.00000000E+00
  0.00000000E+00  0.00000000E+00  0.00000000E+00
  0.00000000E+00  0.00000000E+00  0.00000000E+00
  0.00000000E+00  0.00000000E+00  0.00000000E+00
  0.00000000E+00  0.00000000E+00  0.00000000E+00
  0.00000000E+00  0.00000000E+00  0.00000000E+00
  0.00000000E+00  0.00000000E+00  0.00000000E+00
  0.00000000E+00  0.00000000E+00  0.00000000E+00
  0.00000000E+00  0.00000000E+00  0.00000000E+00
  0.00000000E+00  0.00000000E+00  0.00000000E+00
