C    H    N    O                        
    1.000000000000000     
    17.2710380553999983    0.0000000000000000    0.0000000000000000
    -8.6355190276999991   14.9571577057000002    0.0000000000000000
     0.0000000000000000    0.0000000000000000   15.0000000000000000
   C    H    N    O 
    84     6     4     1
Selective dynamics
Direct
  0.0014069995433916  0.0006354445160229  0.4996919717092874   T   T   T
  0.0008821200991955  0.1431010609668219  0.4997698556901239   T   T   T
  0.0005301593352509  0.2859468519544478  0.4997992073998117   T   T   T
  0.0008809291179811  0.4291308635508991  0.4998695329249110   T   T   T
  0.0013831133966806  0.5721009319787791  0.4998662470988794   T   T   T
  0.0017563743558775  0.7149533126652658  0.4998179384697793   T   T   T
  0.0017940406846855  0.8581982911855438  0.4997685120980932   T   T   T
  0.1451985259874743  0.0018128044561731  0.5000872550152975   T   T   T
  0.1447359264682952  0.1444934998198174  0.5002853100270240   T   T   T
  0.1428627548410434  0.2859384908969437  0.5004988304521351   T   T   T
  0.1428382135093162  0.4283033847198745  0.5005147557814794   T   T   T
  0.1447392948815414  0.5715893845170026  0.5004601202722616   T   T   T
  0.1451729827519523  0.7147213573127665  0.5002022318250406   T   T   T
  0.1451000238792555  0.8582288860825927  0.4999960811262263   T   T   T
  0.2880774761150863  0.0018529198278885  0.5002515871101979   T   T   T
  0.2883687609545547  0.1465411949503446  0.5007107395874903   T   T   T
  0.2876156281690317  0.2926580808220038  0.5015674091457455   T   T   T
  0.2854077743118603  0.4283929054616505  0.5021083934314884   T   T   T
  0.2876511423575173  0.5663454321715580  0.5016542375425697   T   T   T
  0.2883830130551939  0.7132492486577274  0.5008431223565887   T   T   T
  0.2880827066251574  0.8576311945416422  0.5002205681742997   T   T   T
  0.4306054364069445  0.0009856676063042  0.5002400418399996   T   T   T
  0.4312562640054956  0.1456353102188075  0.5003576285684302   T   T   T
  0.4304903350414916  0.2872378592788815  0.5004796653632911   T   T   T
  0.4304686787262912  0.7146018897219445  0.5006186525124784   T   T   T
  0.4312931346054242  0.8570183352517519  0.5004312180731832   T   T   T
  0.5729177897624901  0.0005529524238160  0.5000754567810962   T   T   T
  0.5729071808070145  0.1437199995620897  0.4999920464770236   T   T   T
  0.5765885264617694  0.2902282474684417  0.4999880356350514   T   T   T
  0.5766170562655923  0.8577022187513426  0.5001667937553758   T   T   T
  0.7158086161529923  0.0009598266789384  0.4998232361007403   T   T   T
  0.7156457155441290  0.1434774940833460  0.4997523468198564   T   T   T
  0.7158298982844429  0.2861822033150341  0.4997443800202288   T   T   T
  0.7118469640235131  0.4256668268874091  0.5000316808976725   T   T   T
  0.7161230125058263  0.5723883816063507  0.5012495819690402   T   T   T
  0.7161417342733016  0.7150538390857285  0.5013370160026609   T   T   T
  0.7118851527498330  0.8575221817678883  0.5001203708697600   T   T   T
  0.8581849553403007  0.0002424405575920  0.4996328027344926   T   T   T
  0.8581754734409353  0.1433079417801889  0.4995862800034044   T   T   T
  0.8581796281425977  0.2861796032942874  0.4996451718026761   T   T   T
  0.8581789392194474  0.4292628508176891  0.4997332085681157   T   T   T
  0.8573944574446465  0.5715044919443910  0.4998261588448228   T   T   T
  0.8587905682499453  0.7150722407071132  0.5000546551414987   T   T   T
  0.8574281817749277  0.8572498942630885  0.4998558976998106   T   T   T
  0.0492021836537833  0.0960898515223131  0.4998651021766735   T   T   T
  0.0477370043900930  0.2381136170593173  0.4999608906938984   T   T   T
  0.0477467446147952  0.3809899834711419  0.5000040943195174   T   T   T
  0.0491872324248244  0.5244507504270094  0.5000304532979950   T   T   T
  0.0495477123304254  0.6674396773158719  0.4999473403388015   T   T   T
  0.0494399937957315  0.8103928483406579  0.4998502727509178   T   T   T
  0.0495894672988556  0.9534892462227136  0.4997967908416397   T   T   T
  0.1928149591523950  0.0972563145663871  0.5004148583478563   T   T   T
  0.1917036023952920  0.2400040905657754  0.5007052148613476   T   T   T
  0.1897599969185182  0.3805731967056788  0.5008529084218608   T   T   T
  0.1917224318729754  0.5230681291847464  0.5007891192878604   T   T   T
  0.1928044247390365  0.6669161670669012  0.5006040694591830   T   T   T
  0.1928001179204946  0.8103411135736566  0.5001304256574837   T   T   T
  0.1928118628603227  0.9538233157626127  0.5001225707856025   T   T   T
  0.3358865776696817  0.0982648525087824  0.5004382092398857   T   T   T
  0.3369091690123446  0.2431066295336998  0.5010706947243133   T   T   T
  0.3368942720395352  0.6651917987973431  0.5011888974471517   T   T   T
  0.3358944585750458  0.8090426220921494  0.5004984332697316   T   T   T
  0.3352219409889531  0.9533211785129122  0.5002220650499215   T   T   T
  0.4779217290549472  0.0965039852803079  0.5001989378002797   T   T   T
  0.4787308124485520  0.2416044573794621  0.5002396299402845   T   T   T
  0.4787472767815762  0.8084832930983671  0.5004030082092003   T   T   T
  0.4779413939306924  0.9528193406687320  0.5002407138794199   T   T   T
  0.6202196949995412  0.0957872596791713  0.4999295166946534   T   T   T
  0.6210566002374870  0.2392944981857842  0.4998809257955518   T   T   T
  0.6210699997572720  0.9531061736419987  0.5000280801682413   T   T   T
  0.7633182816010395  0.0961878114914679  0.4997034969545945   T   T   T
  0.7633376091821447  0.2384443230379521  0.4996734048624799   T   T   T
  0.7626955598059437  0.3810215840977690  0.4998048708235706   T   T   T
  0.7608480774487196  0.5239592572318584  0.5002670515164542   T   T   T
  0.7629221137647005  0.6671212392728877  0.5009025250819664   T   T   T
  0.7608863495954399  0.8082309182962895  0.5003714476243949   T   T   T
  0.7627194953837634  0.9530131960251734  0.4998091410977991   T   T   T
  0.9056336809258756  0.0952821590652890  0.4996023295612971   T   T   T
  0.9054962652393521  0.2383872293892261  0.4996094088012967   T   T   T
  0.9056268213615932  0.3816634859401750  0.4997041073700852   T   T   T
  0.9058403984451587  0.5246287995332493  0.4997264269742197   T   T   T
  0.9058679803466548  0.6670273783212408  0.4998303889880166   T   T   T
  0.9059050308621077  0.8102180656333112  0.4998514155936831   T   T   T
  0.9058748633166228  0.9525859042493294  0.4996258262094490   T   T   T
  0.4686284631455512  0.3599450616862955  0.4997487872651730   T   T   T
  0.6432199736353686  0.6773168970249848  0.5027888226461029   T   T   T
  0.6431936475272746  0.5372217664172275  0.5027140310344264   T   T   T
  0.4685641172043620  0.6799855234229063  0.4998925009284008   T   T   T
  0.4635499201690469  0.5599611352541247  0.5269784248860631   T   T   T
  0.4629402735986667  0.4743223683151342  0.5267377870285425   T   T   T
  0.3316966946430916  0.3829789769057017  0.5027895673234648   T   T   T
  0.3317294999592309  0.5201011808373918  0.5028289790679974   T   T   T
  0.6218609125025121  0.3805615850414544  0.5000143762059276   T   T   T
  0.6218886129318443  0.8126405158079992  0.5001874034921859   T   T   T
  0.5060316098710516  0.5382982904098402  0.5348879996666724   T   T   F
 
  0.00000000E+00  0.00000000E+00  0.00000000E+00
  0.00000000E+00  0.00000000E+00  0.00000000E+00
  0.00000000E+00  0.00000000E+00  0.00000000E+00
  0.00000000E+00  0.00000000E+00  0.00000000E+00
  0.00000000E+00  0.00000000E+00  0.00000000E+00
  0.00000000E+00  0.00000000E+00  0.00000000E+00
  0.00000000E+00  0.00000000E+00  0.00000000E+00
  0.00000000E+00  0.00000000E+00  0.00000000E+00
  0.00000000E+00  0.00000000E+00  0.00000000E+00
  0.00000000E+00  0.00000000E+00  0.00000000E+00
  0.00000000E+00  0.00000000E+00  0.00000000E+00
  0.00000000E+00  0.00000000E+00  0.00000000E+00
  0.00000000E+00  0.00000000E+00  0.00000000E+00
  0.00000000E+00  0.00000000E+00  0.00000000E+00
  0.00000000E+00  0.00000000E+00  0.00000000E+00
  0.00000000E+00  0.00000000E+00  0.00000000E+00
  0.00000000E+00  0.00000000E+00  0.00000000E+00
  0.00000000E+00  0.00000000E+00  0.00000000E+00
  0.00000000E+00  0.00000000E+00  0.00000000E+00
  0.00000000E+00  0.00000000E+00  0.00000000E+00
  0.00000000E+00  0.00000000E+00  0.00000000E+00
  0.00000000E+00  0.00000000E+00  0.00000000E+00
  0.00000000E+00  0.00000000E+00  0.00000000E+00
  0.00000000E+00  0.00000000E+00  0.00000000E+00
  0.00000000E+00  0.00000000E+00  0.00000000E+00
  0.00000000E+00  0.00000000E+00  0.00000000E+00
  0.00000000E+00  0.00000000E+00  0.00000000E+00
  0.00000000E+00  0.00000000E+00  0.00000000E+00
  0.00000000E+00  0.00000000E+00  0.00000000E+00
  0.00000000E+00  0.00000000E+00  0.00000000E+00
  0.00000000E+00  0.00000000E+00  0.00000000E+00
  0.00000000E+00  0.00000000E+00  0.00000000E+00
  0.00000000E+00  0.00000000E+00  0.00000000E+00
  0.00000000E+00  0.00000000E+00  0.00000000E+00
  0.00000000E+00  0.00000000E+00  0.00000000E+00
  0.00000000E+00  0.00000000E+00  0.00000000E+00
  0.00000000E+00  0.00000000E+00  0.00000000E+00
  0.00000000E+00  0.00000000E+00  0.00000000E+00
  0.00000000E+00  0.00000000E+00  0.00000000E+00
  0.00000000E+00  0.00000000E+00  0.00000000E+00
  0.00000000E+00  0.00000000E+00  0.00000000E+00
  0.00000000E+00  0.00000000E+00  0.00000000E+00
  0.00000000E+00  0.00000000E+00  0.00000000E+00
  0.00000000E+00  0.00000000E+00  0.00000000E+00
  0.00000000E+00  0.00000000E+00  0.00000000E+00
  0.00000000E+00  0.00000000E+00  0.00000000E+00
  0.00000000E+00  0.00000000E+00  0.00000000E+00
  0.00000000E+00  0.00000000E+00  0.00000000E+00
  0.00000000E+00  0.00000000E+00  0.00000000E+00
  0.00000000E+00  0.00000000E+00  0.00000000E+00
  0.00000000E+00  0.00000000E+00  0.00000000E+00
  0.00000000E+00  0.00000000E+00  0.00000000E+00
  0.00000000E+00  0.00000000E+00  0.00000000E+00
  0.00000000E+00  0.00000000E+00  0.00000000E+00
  0.00000000E+00  0.00000000E+00  0.00000000E+00
  0.00000000E+00  0.00000000E+00  0.00000000E+00
  0.00000000E+00  0.00000000E+00  0.00000000E+00
  0.00000000E+00  0.00000000E+00  0.00000000E+00
  0.00000000E+00  0.00000000E+00  0.00000000E+00
  0.00000000E+00  0.00000000E+00  0.00000000E+00
  0.00000000E+00  0.00000000E+00  0.00000000E+00
  0.00000000E+00  0.00000000E+00  0.00000000E+00
  0.00000000E+00  0.00000000E+00  0.00000000E+00
  0.00000000E+00  0.00000000E+00  0.00000000E+00
  0.00000000E+00  0.00000000E+00  0.00000000E+00
  0.00000000E+00  0.00000000E+00  0.00000000E+00
  0.00000000E+00  0.00000000E+00  0.00000000E+00
  0.00000000E+00  0.00000000E+00  0.00000000E+00
  0.00000000E+00  0.00000000E+00  0.00000000E+00
  0.00000000E+00  0.00000000E+00  0.00000000E+00
  0.00000000E+00  0.00000000E+00  0.00000000E+00
  0.00000000E+00  0.00000000E+00  0.00000000E+00
  0.00000000E+00  0.00000000E+00  0.00000000E+00
  0.00000000E+00  0.00000000E+00  0.00000000E+00
  0.00000000E+00  0.00000000E+00  0.00000000E+00
  0.00000000E+00  0.00000000E+00  0.00000000E+00
  0.00000000E+00  0.00000000E+00  0.00000000E+00
  0.00000000E+00  0.00000000E+00  0.00000000E+00
  0.00000000E+00  0.00000000E+00  0.00000000E+00
  0.00000000E+00  0.00000000E+00  0.00000000E+00
  0.00000000E+00  0.00000000E+00  0.00000000E+00
  0.00000000E+00  0.00000000E+00  0.00000000E+00
  0.00000000E+00  0.00000000E+00  0.00000000E+00
  0.00000000E+00  0.00000000E+00  0.00000000E+00
  0.00000000E+00  0.00000000E+00  0.00000000E+00
  0.00000000E+00  0.00000000E+00  0.00000000E+00
  0.00000000E+00  0.00000000E+00  0.00000000E+00
  0.00000000E+00  0.00000000E+00  0.00000000E+00
  0.00000000E+00  0.00000000E+00  0.00000000E+00
  0.00000000E+00  0.00000000E+00  0.00000000E+00
  0.00000000E+00  0.00000000E+00  0.00000000E+00
  0.00000000E+00  0.00000000E+00  0.00000000E+00
  0.00000000E+00  0.00000000E+00  0.00000000E+00
  0.00000000E+00  0.00000000E+00  0.00000000E+00
  0.00000000E+00  0.00000000E+00  0.00000000E+00
