C4                                      
    1.000000000000000     
    17.2710380553999983    0.0000000000000000    0.0000000000000000
    -8.6355190276999991   14.9571577057000002    0.0000000000000000
     0.0000000000000000    0.0000000000000000   15.0000000000000000
   C    F    N 
    86     6     2
Direct
  0.0005394113113577 -0.0000421757557523  0.2533785738330474
 -0.0004883690853603  0.1422660616284733  0.2458297992197444
 -0.0008030305427822  0.2853256283769850  0.2438135435094697
 -0.0005150148269850  0.4287607273190709  0.2454747463184681
  0.0004537900735475  0.5720738506639672  0.2526791192928152
  0.0025419942521762  0.7156397160905146  0.2585471663132537
  0.0025205819219997  0.8584081458493211  0.2589947535816806
  0.1442678268784782  0.0009387632524134  0.2584714833550747
  0.1429123722195203  0.1429288151269842  0.2484505898396211
  0.1417365201310209  0.2850837212297093  0.2445012975941837
  0.1417747486833079  0.4281911968891959  0.2440614838749646
  0.1428696505546909  0.5715085694851754  0.2475533416692120
  0.1442220933617401  0.7148503253801503  0.2570443144390421
  0.1447946473377539  0.8581320494096307  0.2605862382986915
  0.2868901459192289  0.0004804525082103  0.2585533429132723
  0.2863445789300709  0.1429305138979143  0.2529239276171821
  0.2853592646617143  0.2859986327924571  0.2460404046178467
  0.2833275311963226  0.4274586659910408  0.2575399230490507
  0.2854887171953302  0.5710217910344505  0.2442897644807057
  0.2862985458438336  0.7150032205741038  0.2512021104636783
  0.2868637437664021  0.8579225297392398  0.2577289119340146
  0.4298581387094046  0.0006185937669695  0.2558037218399900
  0.4291680655565806  0.1432211857895049  0.2516567197325452
  0.4242469858788879  0.2774899319430811  0.2201498186875068
  0.4240434854452312  0.7184859424865554  0.2168611217686152
  0.4290940497980738  0.8573684437818199  0.2501547457948563
  0.5722229141963521  0.0001875339425801  0.2462514328842466
  0.5722430973415868  0.1434695426583235  0.2467210045369960
  0.5723044801312324  0.2869103885796691  0.2456234848041038
  0.5722296678942315  0.8567760382367575  0.2437620199459242
  0.7147771226257661 -0.0012648366035333  0.2457713791540601
  0.7147751487869531  0.1431210567539000  0.2441223079791403
  0.7148297239404454  0.2875012215184292  0.2456474989902988
  0.7145531955732992  0.4322305718152272  0.2553315757983505
  0.7144700827620249  0.8536977821549786  0.2546485234700336
  0.8570840590916242 -0.0011506026176952  0.2486391579156261
  0.8569007366727004  0.1423614006793172  0.2448343260444505
  0.8569224024821482  0.2859618225872690  0.2444326493812006
  0.8570371200391022  0.4296927733417098  0.2480680229067867
  0.8586359126800319  0.5737442145876821  0.2562552993825017
  0.8608182327202795  0.7161816915481195  0.2586337113741049
  0.8586542850704786  0.8564569772306038  0.2562858093988513
  0.0477206318167141  0.0951527131570692  0.2489070881577293
  0.0465106588115989  0.2373859051724174  0.2441745314645066
  0.0464884509677509  0.3806181206217423  0.2438852953984973
  0.0476795472685225  0.5240905864693498  0.2483105007387466
  0.0490394530190773  0.6673581698897146  0.2564586337462635
  0.0498303593823568  0.8106838181367331  0.2600009719668691
  0.0490816075878855  0.9532262832340272  0.2573814516988017
  0.1911073607216608  0.0957352624150067  0.2549494892455047
  0.1896559044220499  0.2379240105221169  0.2446287602289755
  0.1885541076657390  0.3800260769194606  0.2460396461001534
  0.1897386449500876  0.5233288465026033  0.2439384586906872
  0.1910362827824320  0.6669089637457239  0.2534925716812489
  0.1919396788175023  0.8102713414380845  0.2592015790637928
  0.1919709193199606  0.9531852964513802  0.2601343662593965
  0.3341382928933798  0.0955889028488948  0.2545496354543035
  0.3332922700791130  0.2374052032711148  0.2407351976347522
  0.3275961551898269  0.3775559758774634  0.2628347616766348
  0.3279329077551578  0.5217278234818103  0.2604531702557981
  0.3332547342689944  0.6675558061171902  0.2383465754059013
  0.3340860661169572  0.8100982922486127  0.2531749507779393
  0.3344843887809920  0.9529927420280341  0.2582859626675699
  0.4773484380046349  0.0958505872673674  0.2529159810735014
  0.4762168342495101  0.2378688730243266  0.2401875379919771
  0.4761535665215049  0.8098842156769067  0.2377024786201194
  0.4772835864406131  0.9528645458855211  0.2521415362656461
  0.6195583244845122  0.0954837529286282  0.2452679693491230
  0.6198752796653040  0.2391919910294814  0.2446803404681618
  0.6213241171281557  0.3800795711082741  0.2607564063895853
  0.6211332736516293  0.8123429937855333  0.2580963577658773
  0.6198305198133764  0.9520474453175949  0.2441351937410421
  0.7619436586183438  0.0946775879239000  0.2448881820608707
  0.7620175015368204  0.2387559214670358  0.2446310783846071
  0.7618081188028619  0.3833726331620457  0.2480369822111802
  0.7626904256218779  0.5309587468816170  0.2572231894852228
  0.7652873503472616  0.6683776480368275  0.2573339457391499
  0.7627033824539998  0.8032526942585921  0.2568576450043746
  0.7618010351046706  0.9499315456216018  0.2483419701100761
  0.9042248526102085  0.0941621380327947  0.2461506574250481
  0.9041128544918623  0.2377554209833908  0.2440741127306127
  0.9042071145261917  0.3815421534893985  0.2455427775086301
  0.9050994591309868  0.5250069788351119  0.2525851247028241
  0.9075345208169108  0.6683907933103039  0.2581880405565521
  0.9075311340157650  0.8106997642220002  0.2583103644271661
  0.9051709317531638  0.9516353908078162  0.2529968738103182
  0.4621008489776061  0.3545645062462609  0.1729532301204675
  0.4140897744263405  0.4206719445011450  0.2873462862272496
  0.4154082529689646  0.5652342211025552  0.2812940184830872
  0.5751625192740635  0.4195877052969576  0.2870679914402742
  0.5745692088148256  0.7258043524555624  0.2813361512402104
  0.4611920430451048  0.6796788841719650  0.1679619051286092
  0.7187127265799917  0.5769866861669661  0.2570399642973684
  0.7187878378898949  0.7132435767067440  0.2567529409217844
 
  0.00000000E+00  0.00000000E+00  0.00000000E+00
  0.00000000E+00  0.00000000E+00  0.00000000E+00
  0.00000000E+00  0.00000000E+00  0.00000000E+00
  0.00000000E+00  0.00000000E+00  0.00000000E+00
  0.00000000E+00  0.00000000E+00  0.00000000E+00
  0.00000000E+00  0.00000000E+00  0.00000000E+00
  0.00000000E+00  0.00000000E+00  0.00000000E+00
  0.00000000E+00  0.00000000E+00  0.00000000E+00
  0.00000000E+00  0.00000000E+00  0.00000000E+00
  0.00000000E+00  0.00000000E+00  0.00000000E+00
  0.00000000E+00  0.00000000E+00  0.00000000E+00
  0.00000000E+00  0.00000000E+00  0.00000000E+00
  0.00000000E+00  0.00000000E+00  0.00000000E+00
  0.00000000E+00  0.00000000E+00  0.00000000E+00
  0.00000000E+00  0.00000000E+00  0.00000000E+00
  0.00000000E+00  0.00000000E+00  0.00000000E+00
  0.00000000E+00  0.00000000E+00  0.00000000E+00
  0.00000000E+00  0.00000000E+00  0.00000000E+00
  0.00000000E+00  0.00000000E+00  0.00000000E+00
  0.00000000E+00  0.00000000E+00  0.00000000E+00
  0.00000000E+00  0.00000000E+00  0.00000000E+00
  0.00000000E+00  0.00000000E+00  0.00000000E+00
  0.00000000E+00  0.00000000E+00  0.00000000E+00
  0.00000000E+00  0.00000000E+00  0.00000000E+00
  0.00000000E+00  0.00000000E+00  0.00000000E+00
  0.00000000E+00  0.00000000E+00  0.00000000E+00
  0.00000000E+00  0.00000000E+00  0.00000000E+00
  0.00000000E+00  0.00000000E+00  0.00000000E+00
  0.00000000E+00  0.00000000E+00  0.00000000E+00
  0.00000000E+00  0.00000000E+00  0.00000000E+00
  0.00000000E+00  0.00000000E+00  0.00000000E+00
  0.00000000E+00  0.00000000E+00  0.00000000E+00
  0.00000000E+00  0.00000000E+00  0.00000000E+00
  0.00000000E+00  0.00000000E+00  0.00000000E+00
  0.00000000E+00  0.00000000E+00  0.00000000E+00
  0.00000000E+00  0.00000000E+00  0.00000000E+00
  0.00000000E+00  0.00000000E+00  0.00000000E+00
  0.00000000E+00  0.00000000E+00  0.00000000E+00
  0.00000000E+00  0.00000000E+00  0.00000000E+00
  0.00000000E+00  0.00000000E+00  0.00000000E+00
  0.00000000E+00  0.00000000E+00  0.00000000E+00
  0.00000000E+00  0.00000000E+00  0.00000000E+00
  0.00000000E+00  0.00000000E+00  0.00000000E+00
  0.00000000E+00  0.00000000E+00  0.00000000E+00
  0.00000000E+00  0.00000000E+00  0.00000000E+00
  0.00000000E+00  0.00000000E+00  0.00000000E+00
  0.00000000E+00  0.00000000E+00  0.00000000E+00
  0.00000000E+00  0.00000000E+00  0.00000000E+00
  0.00000000E+00  0.00000000E+00  0.00000000E+00
  0.00000000E+00  0.00000000E+00  0.00000000E+00
  0.00000000E+00  0.00000000E+00  0.00000000E+00
  0.00000000E+00  0.00000000E+00  0.00000000E+00
  0.00000000E+00  0.00000000E+00  0.00000000E+00
  0.00000000E+00  0.00000000E+00  0.00000000E+00
  0.00000000E+00  0.00000000E+00  0.00000000E+00
  0.00000000E+00  0.00000000E+00  0.00000000E+00
  0.00000000E+00  0.00000000E+00  0.00000000E+00
  0.00000000E+00  0.00000000E+00  0.00000000E+00
  0.00000000E+00  0.00000000E+00  0.00000000E+00
  0.00000000E+00  0.00000000E+00  0.00000000E+00
  0.00000000E+00  0.00000000E+00  0.00000000E+00
  0.00000000E+00  0.00000000E+00  0.00000000E+00
  0.00000000E+00  0.00000000E+00  0.00000000E+00
  0.00000000E+00  0.00000000E+00  0.00000000E+00
  0.00000000E+00  0.00000000E+00  0.00000000E+00
  0.00000000E+00  0.00000000E+00  0.00000000E+00
  0.00000000E+00  0.00000000E+00  0.00000000E+00
  0.00000000E+00  0.00000000E+00  0.00000000E+00
  0.00000000E+00  0.00000000E+00  0.00000000E+00
  0.00000000E+00  0.00000000E+00  0.00000000E+00
  0.00000000E+00  0.00000000E+00  0.00000000E+00
  0.00000000E+00  0.00000000E+00  0.00000000E+00
  0.00000000E+00  0.00000000E+00  0.00000000E+00
  0.00000000E+00  0.00000000E+00  0.00000000E+00
  0.00000000E+00  0.00000000E+00  0.00000000E+00
  0.00000000E+00  0.00000000E+00  0.00000000E+00
  0.00000000E+00  0.00000000E+00  0.00000000E+00
  0.00000000E+00  0.00000000E+00  0.00000000E+00
  0.00000000E+00  0.00000000E+00  0.00000000E+00
  0.00000000E+00  0.00000000E+00  0.00000000E+00
  0.00000000E+00  0.00000000E+00  0.00000000E+00
  0.00000000E+00  0.00000000E+00  0.00000000E+00
  0.00000000E+00  0.00000000E+00  0.00000000E+00
  0.00000000E+00  0.00000000E+00  0.00000000E+00
  0.00000000E+00  0.00000000E+00  0.00000000E+00
  0.00000000E+00  0.00000000E+00  0.00000000E+00
  0.00000000E+00  0.00000000E+00  0.00000000E+00
  0.00000000E+00  0.00000000E+00  0.00000000E+00
  0.00000000E+00  0.00000000E+00  0.00000000E+00
  0.00000000E+00  0.00000000E+00  0.00000000E+00
  0.00000000E+00  0.00000000E+00  0.00000000E+00
  0.00000000E+00  0.00000000E+00  0.00000000E+00
  0.00000000E+00  0.00000000E+00  0.00000000E+00
  0.00000000E+00  0.00000000E+00  0.00000000E+00
