C    F    N    H    O                   
    1.000000000000000     
    17.2710380553999983    0.0000000000000000    0.0000000000000000
    -8.6355190276999991   14.9571577057000002    0.0000000000000000
     0.0000000000000000    0.0000000000000000   15.0000000000000000
   C    F    N    H    O 
    86     6     2     2     1
Selective dynamics
Direct
  0.9983199174594364  0.9989475650619565  0.5035039600937619   T   T   T
  0.9976402961176192  0.1413833772272891  0.5052684287904621   T   T   T
  0.9978448691583548  0.2845632470947320  0.5047801607447528   T   T   T
  0.9984934173382179  0.4277537293574379  0.5046637503658464   T   T   T
  0.9989021226661317  0.5708627933529400  0.5009528840648542   T   T   T
  0.9998573075132008  0.7141708394635334  0.4990234834935983   T   T   T
  0.9999261531337225  0.8572165636361332  0.5003653145993626   T   T   T
  0.1417108131056780  0.9997669604701765  0.4924960730322121   T   T   T
  0.1407857062276370  0.1420309868178666  0.4974191115183165   T   T   T
  0.1400686964723949  0.2845619576555224  0.4961915822714663   T   T   T
  0.1409592343815065  0.4281159635596765  0.4949273903341890   T   T   T
  0.1416149944637113  0.5708273039943665  0.4962481091720642   T   T   T
  0.1418285731454218  0.7137641577293180  0.4930192698072978   T   T   T
  0.1420060345382157  0.8568775484118274  0.4915644374714151   T   T   T
  0.2845182950554737  0.9994873426015387  0.4906146359050291   T   T   T
  0.2840965440187777  0.1418880174651479  0.4908886466862536   T   T   T
  0.2830990787367251  0.2852201688224759  0.4893170057900132   T   T   T
  0.2808928935444418  0.4265667304644251  0.4708759030710734   T   T   T
  0.2850585877573636  0.5719570566700625  0.4812665508989509   T   T   T
  0.2843202444244139  0.7144289775273728  0.4914961258601081   T   T   T
  0.2843029130899400  0.8570427686143240  0.4912172151923873   T   T   T
  0.4274877899141184  0.9993852532771522  0.4946080320076240   T   T   T
  0.4272023501943641  0.1422021541400008  0.4957377609832829   T   T   T
  0.4219399443675184  0.2776146852739463  0.5192026772630600   T   T   T
  0.4264035597266744  0.8559763558456156  0.4979088809208642   T   T   T
  0.5695628064600620  0.9980790552761147  0.5037304473854245   T   T   T
  0.5700172822604217  0.1415959774475622  0.5048721179847783   T   T   T
  0.5706922406689746  0.2852768104612828  0.5065429812270714   T   T   T
  0.5675468427008583  0.8533500489262279  0.5155499301183308   T   T   T
  0.7116212532411096  0.9966644954908679  0.5128829791493267   T   T   T
  0.7125796213491616  0.1410093118638734  0.5089730353093904   T   T   T
  0.7130631054786055  0.2847555703166884  0.5119193133997759   T   T   T
  0.7140898097123318  0.4287312411432339  0.5155655434877628   T   T   T
  0.7236844720995746  0.5769218867468777  0.5490702200688108   T   T   T
  0.7119689225322314  0.8533052904446733  0.5292510571897213   T   T   T
  0.8548480272355330  0.9978495868333419  0.5129877673732842   T   T   T
  0.8547705181485485  0.1409173616513379  0.5096509344381199   T   T   T
  0.8553938197888488  0.2843901211393831  0.5100185210843609   T   T   T
  0.8562834688052288  0.4279324004284861  0.5122420940070485   T   T   T
  0.8572358550142863  0.5720290857308615  0.5101845655718584   T   T   T
  0.8592087380404221  0.7153678775856271  0.5164691631286084   T   T   T
  0.8569579007655033  0.8560917802155219  0.5177970698544428   T   T   T
  0.0456927866469387  0.0942145157084409  0.5021638529100088   T   T   T
  0.0449192272804944  0.2366054607754171  0.5025745639598771   T   T   T
  0.0457005231464869  0.3800509740368661  0.5021781644948333   T   T   T
  0.0464371826072888  0.5230815336847058  0.5009771727788087   T   T   T
  0.0467409344713328  0.6661564034837082  0.4967371148794739   T   T   T
  0.0470525183100617  0.8092646097513079  0.4960262526995813   T   T   T
  0.0465849295960159  0.9520439411344187  0.4982392752024534   T   T   T
  0.1887636062912433  0.0945886533350184  0.4918665348293816   T   T   T
  0.1876404544484253  0.2371594691704401  0.4955393572408223   T   T   T
  0.1870924352673924  0.3795776922314943  0.4894629647936195   T   T   T
  0.1894240932520367  0.5236121308227266  0.4921784942533060   T   T   T
  0.1891119643181302  0.6661897505712211  0.4928815141889606   T   T   T
  0.1893719208689461  0.8091716066038799  0.4910362716258416   T   T   T
  0.1894364969492807  0.9520272950406649  0.4905702531891501   T   T   T
  0.3320500021098117  0.0946835622380601  0.4921585687483154   T   T   T
  0.3311962518798144  0.2368501994792676  0.4978111377280742   T   T   T
  0.3243156066959307  0.3756372543757747  0.4669049278228948   T   T   T
  0.3252076552587075  0.5210994811297682  0.4614823702324746   T   T   T
  0.3351388208547474  0.6699465141106503  0.4889995691444410   T   T   T
  0.3316680366360197  0.8092615978443369  0.4930381066700977   T   T   T
  0.3321215397239269  0.9520056624006871  0.4914701188563548   T   T   T
  0.4751368227308267  0.0945628587741207  0.4971126005414577   T   T   T
  0.4743464327013434  0.2371342648919909  0.5055690328759717   T   T   T
  0.4702689147373633  0.8045472058524835  0.5042746807319329   T   T   T
  0.4746715316830428  0.9513318168299133  0.4986776422903212   T   T   T
  0.6172892125403227  0.0934766356875524  0.5058883017135727   T   T   T
  0.6179286607056270  0.2371246936316700  0.5097691092358060   T   T   T
  0.6224022403566556  0.3789772740278639  0.4982140692605455   T   T   T
  0.6179755710384338  0.8111678444947185  0.5338923257983111   T   T   T
  0.6161717064528296  0.9490863114354430  0.5097853226317367   T   T   T
  0.7595515164181481  0.0926776923116497  0.5103049481627254   T   T   T
  0.7602958378075161  0.2365092443513478  0.5102847425114618   T   T   T
  0.7610532225746006  0.3801853010404689  0.5157927052633121   T   T   T
  0.7623807095306186  0.5257682105033117  0.5232908846793275   T   T   T
  0.7665837694705272  0.6716167944280143  0.5381176825617590   T   T   T
  0.7620022745575785  0.8048777782480692  0.5328388482292893   T   T   T
  0.7593586038888042  0.9488743369993053  0.5175705962611963   T   T   T
  0.9022220392453797  0.0930717113470096  0.5092079184796390   T   T   T
  0.9025578127843574  0.2364663950512266  0.5083941371575722   T   T   T
  0.9032579952623021  0.3800102380020919  0.5094778913380807   T   T   T
  0.9038012371846638  0.5234078164110704  0.5065767205527125   T   T   T
  0.9052019784131816  0.6668752567114230  0.5076534830202551   T   T   T
  0.9054197115769760  0.8098261330278789  0.5109119842583386   T   T   T
  0.9032391423119057  0.9509313240020479  0.5112496632271076   T   T   T
  0.4587745613541676  0.3571404563216597  0.5623309994524420   T   T   T
  0.4098505494685553  0.4163025835742997  0.4387353057964353   T   T   T
  0.4094932413082751  0.5628648957086909  0.4326415883359575   T   T   T
  0.6436272011874938  0.5352831992799572  0.5907373286522524   T   T   T
  0.5834850231831038  0.4233350971129572  0.4640580846780054   T   T   T
  0.5723863389693892  0.7253724413100037  0.5591744888228453   T   T   T
  0.4245848501900222  0.7145194957991940  0.4971446513978105   T   T   T
  0.7206877486113968  0.7162487968906479  0.5471037700820544   T   T   T
  0.6052898706103769  0.6304818926652690  0.5081648161287717   T   T   T
  0.5299424374250381  0.5315504430335974  0.5003711889137171   T   T   T
  0.5671757942533705  0.5843131360774472  0.4651120913333457   T   T   F
 
  0.00000000E+00  0.00000000E+00  0.00000000E+00
  0.00000000E+00  0.00000000E+00  0.00000000E+00
  0.00000000E+00  0.00000000E+00  0.00000000E+00
  0.00000000E+00  0.00000000E+00  0.00000000E+00
  0.00000000E+00  0.00000000E+00  0.00000000E+00
  0.00000000E+00  0.00000000E+00  0.00000000E+00
  0.00000000E+00  0.00000000E+00  0.00000000E+00
  0.00000000E+00  0.00000000E+00  0.00000000E+00
  0.00000000E+00  0.00000000E+00  0.00000000E+00
  0.00000000E+00  0.00000000E+00  0.00000000E+00
  0.00000000E+00  0.00000000E+00  0.00000000E+00
  0.00000000E+00  0.00000000E+00  0.00000000E+00
  0.00000000E+00  0.00000000E+00  0.00000000E+00
  0.00000000E+00  0.00000000E+00  0.00000000E+00
  0.00000000E+00  0.00000000E+00  0.00000000E+00
  0.00000000E+00  0.00000000E+00  0.00000000E+00
  0.00000000E+00  0.00000000E+00  0.00000000E+00
  0.00000000E+00  0.00000000E+00  0.00000000E+00
  0.00000000E+00  0.00000000E+00  0.00000000E+00
  0.00000000E+00  0.00000000E+00  0.00000000E+00
  0.00000000E+00  0.00000000E+00  0.00000000E+00
  0.00000000E+00  0.00000000E+00  0.00000000E+00
  0.00000000E+00  0.00000000E+00  0.00000000E+00
  0.00000000E+00  0.00000000E+00  0.00000000E+00
  0.00000000E+00  0.00000000E+00  0.00000000E+00
  0.00000000E+00  0.00000000E+00  0.00000000E+00
  0.00000000E+00  0.00000000E+00  0.00000000E+00
  0.00000000E+00  0.00000000E+00  0.00000000E+00
  0.00000000E+00  0.00000000E+00  0.00000000E+00
  0.00000000E+00  0.00000000E+00  0.00000000E+00
  0.00000000E+00  0.00000000E+00  0.00000000E+00
  0.00000000E+00  0.00000000E+00  0.00000000E+00
  0.00000000E+00  0.00000000E+00  0.00000000E+00
  0.00000000E+00  0.00000000E+00  0.00000000E+00
  0.00000000E+00  0.00000000E+00  0.00000000E+00
  0.00000000E+00  0.00000000E+00  0.00000000E+00
  0.00000000E+00  0.00000000E+00  0.00000000E+00
  0.00000000E+00  0.00000000E+00  0.00000000E+00
  0.00000000E+00  0.00000000E+00  0.00000000E+00
  0.00000000E+00  0.00000000E+00  0.00000000E+00
  0.00000000E+00  0.00000000E+00  0.00000000E+00
  0.00000000E+00  0.00000000E+00  0.00000000E+00
  0.00000000E+00  0.00000000E+00  0.00000000E+00
  0.00000000E+00  0.00000000E+00  0.00000000E+00
  0.00000000E+00  0.00000000E+00  0.00000000E+00
  0.00000000E+00  0.00000000E+00  0.00000000E+00
  0.00000000E+00  0.00000000E+00  0.00000000E+00
  0.00000000E+00  0.00000000E+00  0.00000000E+00
  0.00000000E+00  0.00000000E+00  0.00000000E+00
  0.00000000E+00  0.00000000E+00  0.00000000E+00
  0.00000000E+00  0.00000000E+00  0.00000000E+00
  0.00000000E+00  0.00000000E+00  0.00000000E+00
  0.00000000E+00  0.00000000E+00  0.00000000E+00
  0.00000000E+00  0.00000000E+00  0.00000000E+00
  0.00000000E+00  0.00000000E+00  0.00000000E+00
  0.00000000E+00  0.00000000E+00  0.00000000E+00
  0.00000000E+00  0.00000000E+00  0.00000000E+00
  0.00000000E+00  0.00000000E+00  0.00000000E+00
  0.00000000E+00  0.00000000E+00  0.00000000E+00
  0.00000000E+00  0.00000000E+00  0.00000000E+00
  0.00000000E+00  0.00000000E+00  0.00000000E+00
  0.00000000E+00  0.00000000E+00  0.00000000E+00
  0.00000000E+00  0.00000000E+00  0.00000000E+00
  0.00000000E+00  0.00000000E+00  0.00000000E+00
  0.00000000E+00  0.00000000E+00  0.00000000E+00
  0.00000000E+00  0.00000000E+00  0.00000000E+00
  0.00000000E+00  0.00000000E+00  0.00000000E+00
  0.00000000E+00  0.00000000E+00  0.00000000E+00
  0.00000000E+00  0.00000000E+00  0.00000000E+00
  0.00000000E+00  0.00000000E+00  0.00000000E+00
  0.00000000E+00  0.00000000E+00  0.00000000E+00
  0.00000000E+00  0.00000000E+00  0.00000000E+00
  0.00000000E+00  0.00000000E+00  0.00000000E+00
  0.00000000E+00  0.00000000E+00  0.00000000E+00
  0.00000000E+00  0.00000000E+00  0.00000000E+00
  0.00000000E+00  0.00000000E+00  0.00000000E+00
  0.00000000E+00  0.00000000E+00  0.00000000E+00
  0.00000000E+00  0.00000000E+00  0.00000000E+00
  0.00000000E+00  0.00000000E+00  0.00000000E+00
  0.00000000E+00  0.00000000E+00  0.00000000E+00
  0.00000000E+00  0.00000000E+00  0.00000000E+00
  0.00000000E+00  0.00000000E+00  0.00000000E+00
  0.00000000E+00  0.00000000E+00  0.00000000E+00
  0.00000000E+00  0.00000000E+00  0.00000000E+00
  0.00000000E+00  0.00000000E+00  0.00000000E+00
  0.00000000E+00  0.00000000E+00  0.00000000E+00
  0.00000000E+00  0.00000000E+00  0.00000000E+00
  0.00000000E+00  0.00000000E+00  0.00000000E+00
  0.00000000E+00  0.00000000E+00  0.00000000E+00
  0.00000000E+00  0.00000000E+00  0.00000000E+00
  0.00000000E+00  0.00000000E+00  0.00000000E+00
  0.00000000E+00  0.00000000E+00  0.00000000E+00
  0.00000000E+00  0.00000000E+00  0.00000000E+00
  0.00000000E+00  0.00000000E+00  0.00000000E+00
  0.00000000E+00  0.00000000E+00  0.00000000E+00
  0.00000000E+00  0.00000000E+00  0.00000000E+00
  0.00000000E+00  0.00000000E+00  0.00000000E+00
