C    F    N    H    O                   
    1.000000000000000     
    17.2710380553999983    0.0000000000000000    0.0000000000000000
    -8.6355190276999991   14.9571577057000002    0.0000000000000000
     0.0000000000000000    0.0000000000000000   15.0000000000000000
   C    F    N    H    O 
    86     6     2     2     1
Selective dynamics
Direct
  0.9983127801555080  0.9989220901466498  0.5031534960596381   T   T   T
  0.9976335609713031  0.1413641448157432  0.5052362753949482   T   T   T
  0.9978508132679981  0.2845481080458838  0.5049467878531377   T   T   T
  0.9985008674534980  0.4277473602484969  0.5046235075097938   T   T   T
  0.9989048566051920  0.5708426673815266  0.5005273407843017   T   T   T
 -0.0001347773499515  0.7141548907144953  0.4984684060773139   T   T   T
 -0.0000853835564577  0.8571905119503921  0.4998499665576435   T   T   T
  0.1417284120597815 -0.0002299490906160  0.4925964737323191   T   T   T
  0.1408127010976157  0.1420336302192411  0.4977850243920438   T   T   T
  0.1401074176559128  0.2845663628206933  0.4968207546140970   T   T   T
  0.1409808370398998  0.4281253024945879  0.4956394041967386   T   T   T
  0.1416033961600868  0.5708249041173242  0.4965114895466421   T   T   T
  0.1418382109368142  0.7137649869979326  0.4929757407535807   T   T   T
  0.1420102555557398  0.8568806439656624  0.4914650738644793   T   T   T
  0.2845145587769138  0.9994835148163551  0.4907460042767806   T   T   T
  0.2841352554499305  0.1418953680220830  0.4913530085306329   T   T   T
  0.2831886042553902  0.2852339761193596  0.4901719891064478   T   T   T
  0.2809753250253285  0.4265840352921328  0.4722043005488144   T   T   T
  0.2850751341224572  0.5719599856454913  0.4822950182207507   T   T   T
  0.2843054875208667  0.7144488162364978  0.4918257895273332   T   T   T
  0.2842869330007517  0.8570509449435851  0.4912424567425381   T   T   T
  0.4274784993906474  0.9993951480724703  0.4944848710719979   T   T   T
  0.4272184000854400  0.1421920301837584  0.4956741019720013   T   T   T
  0.4221012171564495  0.2776227619073854  0.5194564507986614   T   T   T
  0.4263967191536888  0.8560107462254146  0.4978021278616095   T   T   T
  0.5695685976876311  0.9981158965976273  0.5033492157138244   T   T   T
  0.5700365828327749  0.1416027638070718  0.5044660922895324   T   T   T
  0.5707344377723610  0.2852697463035955  0.5058930864658575   T   T   T
  0.5675666406648975  0.8533990894597300  0.5151020975269546   T   T   T
  0.7116341915266325  0.9966660495477332  0.5122526984296977   T   T   T
  0.7125947803338708  0.1410143509478603  0.5085863473727964   T   T   T
  0.7130925360048277  0.2847558613027247  0.5112576783028430   T   T   T
  0.7140878289538689  0.4287017275959333  0.5145434443621000   T   T   T
  0.7236252474457409  0.5767722444180852  0.5480463107575675   T   T   T
  0.7119412854814475  0.8532392021117093  0.5283594294846620   T   T   T
  0.8548208954734413  0.9978108814092482  0.5123817067499103   T   T   T
  0.8547679958648078  0.1409005580432204  0.5093554311321845   T   T   T
  0.8554055694959805  0.2843801050298437  0.5097341804900293   T   T   T
  0.8562789450535953  0.4279228147532731  0.5115077006285819   T   T   T
  0.8572282502692580  0.5719986709247391  0.5091218942129492   T   T   T
  0.8591675944254060  0.7152942009032279  0.5154631252803107   T   T   T
  0.8569117102551642  0.8560328360153524  0.5168843679730931   T   T   T
  0.0457002135605947  0.0942157456531907  0.5021496435675076   T   T   T
  0.0449401230718664  0.2365973093340724  0.5028254483150094   T   T   T
  0.0456967641948296  0.3800390611889911  0.5024829518628599   T   T   T
  0.0464234924299368  0.5230620385291154  0.5009136730905120   T   T   T
  0.0467506636763107  0.6661367993294016  0.4964241262724576   T   T   T
  0.0470563299983447  0.8092603749865548  0.4956527393166297   T   T   T
  0.0465925961388384  0.9520421683577340  0.4979628115242007   T   T   T
  0.1888057045265863  0.0946112062106183  0.4922516582688417   T   T   T
  0.1877015664880605  0.2371693545041425  0.4962127093320136   T   T   T
  0.1871140357233395  0.3795728691172805  0.4904157554708756   T   T   T
  0.1894222938359043  0.5236138495490275  0.4928928751794913   T   T   T
  0.1891090743681192  0.6661952970681564  0.4930839237414533   T   T   T
  0.1893747054647327  0.8091724585768796  0.4910140998272283   T   T   T
  0.1894504442759418  0.9520397511544086  0.4906539409339265   T   T   T
  0.3320675459658181  0.0946772682092518  0.4923518476662649   T   T   T
  0.3312669177487266  0.2368452779142846  0.4984213162673458   T   T   T
  0.3244080284728579  0.3756838253261888  0.4679761706618546   T   T   T
  0.3252869503759152  0.5210863961226263  0.4629835498661557   T   T   T
  0.3351169670096009  0.6699632013520715  0.4895911411361970   T   T   T
  0.3316682013457018  0.8092800183499710  0.4931150385221925   T   T   T
  0.3321185141383822  0.9520110795638635  0.4914830170214392   T   T   T
  0.4751444526804088  0.0945581059285340  0.4968865535320180   T   T   T
  0.4744051806351787  0.2371227606906512  0.5053926493475950   T   T   T
  0.4702712087445429  0.8046077187630909  0.5041973232494323   T   T   T
  0.4746698610925495  0.9513545345562996  0.4984321656342972   T   T   T
  0.6173017681318943  0.0934854954072003  0.5055035567165530   T   T   T
  0.6179674617899512  0.2371356987919058  0.5091439881941079   T   T   T
  0.6223953995489780  0.3789540218973103  0.4973410501595967   T   T   T
  0.6179700421779825  0.8111789094639692  0.5331970281607745   T   T   T
  0.6161690074436297  0.9491135796343987  0.5092594493967261   T   T   T
  0.7595599503516459  0.0926837817904973  0.5098585143997276   T   T   T
  0.7603153152327390  0.2365034345659709  0.5098594201594777   T   T   T
  0.7610622595203668  0.3801802899030228  0.5149402038994966   T   T   T
  0.7623750919001954  0.5257210559623313  0.5221435475863035   T   T   T
  0.7665124928022754  0.6714911173535795  0.5370736376050778   T   T   T
  0.7619425127111601  0.8047810481493731  0.5318449525489146   T   T   T
  0.7593297874514957  0.9488251588750826  0.5168411640069799   T   T   T
  0.9022198341324206  0.0930503359775669  0.5088864476797822   T   T   T
  0.9025683969439854  0.2364586321794599  0.5082871910315083   T   T   T
  0.9032515460359585  0.3799939930023171  0.5091205769058331   T   T   T
  0.9037980561223141  0.5233779069875076  0.5057515368013773   T   T   T
  0.9052056254462811  0.6668340466050986  0.5067418472847069   T   T   T
  0.9053697597903654  0.8097658300475006  0.5100104362618088   T   T   T
  0.9032199003410466  0.9508937045903242  0.5106009268078001   T   T   T
  0.4591504392526626  0.3571517582017917  0.5625848950410326   T   T   T
  0.4098573749812124  0.4163541159912073  0.4394141752318237   T   T   T
  0.4097390890355388  0.5628046835868171  0.4344970867038602   T   T   T
  0.6437949681031725  0.5350334212081260  0.5900814091671386   T   T   T
  0.5833264653604000  0.4231930216691328  0.4633349821786731   T   T   T
  0.5723511538587518  0.7253907370214477  0.5585583561790142   T   T   T
  0.4245649308450669  0.7145577975664897  0.4974843143665538   T   T   T
  0.7206577088791897  0.7161667054776877  0.5460973091804460   T   T   T
  0.6055992733796783  0.6307248063261242  0.5078141724793954   T   T   T
  0.5280974100053322  0.5327021014070069  0.5010575542113007   T   T   T
  0.5674485389286937  0.5841126485598556  0.4651120913333457   T   T   F
 
  0.00000000E+00  0.00000000E+00  0.00000000E+00
  0.00000000E+00  0.00000000E+00  0.00000000E+00
  0.00000000E+00  0.00000000E+00  0.00000000E+00
  0.00000000E+00  0.00000000E+00  0.00000000E+00
  0.00000000E+00  0.00000000E+00  0.00000000E+00
  0.00000000E+00  0.00000000E+00  0.00000000E+00
  0.00000000E+00  0.00000000E+00  0.00000000E+00
  0.00000000E+00  0.00000000E+00  0.00000000E+00
  0.00000000E+00  0.00000000E+00  0.00000000E+00
  0.00000000E+00  0.00000000E+00  0.00000000E+00
  0.00000000E+00  0.00000000E+00  0.00000000E+00
  0.00000000E+00  0.00000000E+00  0.00000000E+00
  0.00000000E+00  0.00000000E+00  0.00000000E+00
  0.00000000E+00  0.00000000E+00  0.00000000E+00
  0.00000000E+00  0.00000000E+00  0.00000000E+00
  0.00000000E+00  0.00000000E+00  0.00000000E+00
  0.00000000E+00  0.00000000E+00  0.00000000E+00
  0.00000000E+00  0.00000000E+00  0.00000000E+00
  0.00000000E+00  0.00000000E+00  0.00000000E+00
  0.00000000E+00  0.00000000E+00  0.00000000E+00
  0.00000000E+00  0.00000000E+00  0.00000000E+00
  0.00000000E+00  0.00000000E+00  0.00000000E+00
  0.00000000E+00  0.00000000E+00  0.00000000E+00
  0.00000000E+00  0.00000000E+00  0.00000000E+00
  0.00000000E+00  0.00000000E+00  0.00000000E+00
  0.00000000E+00  0.00000000E+00  0.00000000E+00
  0.00000000E+00  0.00000000E+00  0.00000000E+00
  0.00000000E+00  0.00000000E+00  0.00000000E+00
  0.00000000E+00  0.00000000E+00  0.00000000E+00
  0.00000000E+00  0.00000000E+00  0.00000000E+00
  0.00000000E+00  0.00000000E+00  0.00000000E+00
  0.00000000E+00  0.00000000E+00  0.00000000E+00
  0.00000000E+00  0.00000000E+00  0.00000000E+00
  0.00000000E+00  0.00000000E+00  0.00000000E+00
  0.00000000E+00  0.00000000E+00  0.00000000E+00
  0.00000000E+00  0.00000000E+00  0.00000000E+00
  0.00000000E+00  0.00000000E+00  0.00000000E+00
  0.00000000E+00  0.00000000E+00  0.00000000E+00
  0.00000000E+00  0.00000000E+00  0.00000000E+00
  0.00000000E+00  0.00000000E+00  0.00000000E+00
  0.00000000E+00  0.00000000E+00  0.00000000E+00
  0.00000000E+00  0.00000000E+00  0.00000000E+00
  0.00000000E+00  0.00000000E+00  0.00000000E+00
  0.00000000E+00  0.00000000E+00  0.00000000E+00
  0.00000000E+00  0.00000000E+00  0.00000000E+00
  0.00000000E+00  0.00000000E+00  0.00000000E+00
  0.00000000E+00  0.00000000E+00  0.00000000E+00
  0.00000000E+00  0.00000000E+00  0.00000000E+00
  0.00000000E+00  0.00000000E+00  0.00000000E+00
  0.00000000E+00  0.00000000E+00  0.00000000E+00
  0.00000000E+00  0.00000000E+00  0.00000000E+00
  0.00000000E+00  0.00000000E+00  0.00000000E+00
  0.00000000E+00  0.00000000E+00  0.00000000E+00
  0.00000000E+00  0.00000000E+00  0.00000000E+00
  0.00000000E+00  0.00000000E+00  0.00000000E+00
  0.00000000E+00  0.00000000E+00  0.00000000E+00
  0.00000000E+00  0.00000000E+00  0.00000000E+00
  0.00000000E+00  0.00000000E+00  0.00000000E+00
  0.00000000E+00  0.00000000E+00  0.00000000E+00
  0.00000000E+00  0.00000000E+00  0.00000000E+00
  0.00000000E+00  0.00000000E+00  0.00000000E+00
  0.00000000E+00  0.00000000E+00  0.00000000E+00
  0.00000000E+00  0.00000000E+00  0.00000000E+00
  0.00000000E+00  0.00000000E+00  0.00000000E+00
  0.00000000E+00  0.00000000E+00  0.00000000E+00
  0.00000000E+00  0.00000000E+00  0.00000000E+00
  0.00000000E+00  0.00000000E+00  0.00000000E+00
  0.00000000E+00  0.00000000E+00  0.00000000E+00
  0.00000000E+00  0.00000000E+00  0.00000000E+00
  0.00000000E+00  0.00000000E+00  0.00000000E+00
  0.00000000E+00  0.00000000E+00  0.00000000E+00
  0.00000000E+00  0.00000000E+00  0.00000000E+00
  0.00000000E+00  0.00000000E+00  0.00000000E+00
  0.00000000E+00  0.00000000E+00  0.00000000E+00
  0.00000000E+00  0.00000000E+00  0.00000000E+00
  0.00000000E+00  0.00000000E+00  0.00000000E+00
  0.00000000E+00  0.00000000E+00  0.00000000E+00
  0.00000000E+00  0.00000000E+00  0.00000000E+00
  0.00000000E+00  0.00000000E+00  0.00000000E+00
  0.00000000E+00  0.00000000E+00  0.00000000E+00
  0.00000000E+00  0.00000000E+00  0.00000000E+00
  0.00000000E+00  0.00000000E+00  0.00000000E+00
  0.00000000E+00  0.00000000E+00  0.00000000E+00
  0.00000000E+00  0.00000000E+00  0.00000000E+00
  0.00000000E+00  0.00000000E+00  0.00000000E+00
  0.00000000E+00  0.00000000E+00  0.00000000E+00
  0.00000000E+00  0.00000000E+00  0.00000000E+00
  0.00000000E+00  0.00000000E+00  0.00000000E+00
  0.00000000E+00  0.00000000E+00  0.00000000E+00
  0.00000000E+00  0.00000000E+00  0.00000000E+00
  0.00000000E+00  0.00000000E+00  0.00000000E+00
  0.00000000E+00  0.00000000E+00  0.00000000E+00
  0.00000000E+00  0.00000000E+00  0.00000000E+00
  0.00000000E+00  0.00000000E+00  0.00000000E+00
  0.00000000E+00  0.00000000E+00  0.00000000E+00
  0.00000000E+00  0.00000000E+00  0.00000000E+00
  0.00000000E+00  0.00000000E+00  0.00000000E+00
