C4                                      
    1.000000000000000     
    17.2710380553999983    0.0000000000000000    0.0000000000000000
    -8.6355190276999991   14.9571577057000002    0.0000000000000000
     0.0000000000000000    0.0000000000000000   15.0000000000000000
   C    H    F 
    88     6     2
Direct
 -0.0006760889069479 -0.0007152127577496  0.2499949827494110
 -0.0008581279904267  0.1421684638411806  0.2499968006496576
 -0.0006110638672220  0.2853388599653093  0.2500014984967728
 -0.0000394322199829  0.4285323595164722  0.2500036512930893
  0.0006425613113474  0.5715198379832426  0.2500010861358898
  0.0013626526257842  0.7146098160626236  0.2499995932326753
  0.0006806779915336  0.8573955210282819  0.2499994175797613
  0.1428279402667749  0.0000002987035107  0.2499972441396510
  0.1420183954494264  0.1422968808268535  0.2499986856283738
  0.1412788078714202  0.2844103454149646  0.2500021550498359
  0.1420395643800348  0.4281072003193622  0.2500018485899053
  0.1435302545600135  0.5713189610317466  0.2500009018215607
  0.1435948877592362  0.7144040408893632  0.2500002368890567
  0.1432666184645690  0.8573367094053342  0.2499986042671865
  0.2855377817739234 -0.0000781926530051  0.2499949363609856
  0.2851571183038916  0.1423292589345195  0.2499956836023658
  0.2848716031469897  0.2859836916767315  0.2499992378629588
  0.2827118640040563  0.4256980090161460  0.2500006418185775
  0.2871234446038365  0.5712088929928071  0.2499989079460871
  0.2860606574115136  0.7148856734462148  0.2499985951841444
  0.2856635666292778  0.8576111086903334  0.2499955175717478
  0.4286778810077345  0.0008441194842253  0.2499903870554020
  0.4282586947247145  0.1429051426495724  0.2499936580429157
  0.4263477440337580  0.2821652479224506  0.2499961802737508
  0.4279268336529553  0.7181168979059954  0.2500010310740916
  0.4284119331201193  0.8586007968953409  0.2499999926351328
  0.5714550998161222  0.0012957778234393  0.2499938471022356
  0.5714427674726094  0.1432981898229059  0.2499950108254862
  0.5721960229739327  0.2863207917544313  0.2499989203104160
  0.5720753134622442  0.8595794568133573  0.2500014499318344
  0.7143179521988937  0.0005477772382657  0.2499979502917176
  0.7144461898388583  0.1433610841125169  0.2499993624482901
  0.7144309275361115  0.2859243120232708  0.2500016409359860
  0.7141475618884960  0.4277811702085837  0.2499993684407056
  0.7180796885018186  0.5730443796428950  0.2500004653663901
  0.7194426725448376  0.7152846978017795  0.2500212181584198
  0.7125448033618115  0.8571925635391826  0.2500019175815965
  0.8565838828661037 -0.0003072926054368  0.2499960549297756
  0.8568446924551907  0.1428209372032061  0.2499995291592416
  0.8569911026816995  0.2856796938718725  0.2499998647678716
  0.8575209015813295  0.4285687173654206  0.2500026755653652
  0.8581891402253640  0.5717627323461150  0.2500004886673579
  0.8596690515511572  0.7151441014065731  0.2499999570839656
  0.8567790393821197  0.8563708055554229  0.2499971289025915
  0.0468747614328476  0.0946035948126566  0.2499961969610500
  0.0462022080416434  0.2370531077533673  0.2500004592370254
  0.0468714947152671  0.3805934565518714  0.2500035131929745
  0.0482295467964512  0.5238147543552932  0.2500020876714167
  0.0484916887599693  0.6668214537897478  0.2500015434668870
  0.0482420646671903  0.8097023878797195  0.2500003784104192
  0.0476112697230560  0.9522357341560707  0.2499982075134097
  0.1899163782408054  0.0947555645098075  0.2499973212565837
  0.1892098597608675  0.2373067683168953  0.2500012480623022
  0.1878051730806385  0.3791446613679335  0.2500014369040626
  0.1907242457257373  0.5233252801124512  0.2499994039561977
  0.1909710671444604  0.6669158165803414  0.2499978400408738
  0.1908102015570529  0.8097864652265504  0.2499972419392379
  0.1905797905609668  0.9523793367616534  0.2499975686594252
  0.3331177657747851  0.0952638121870198  0.2499945150802305
  0.3333764143915068  0.2374559723683735  0.2499964784650652
  0.3293398839851510  0.3786320798203114  0.2499990964960334
  0.3281414559603864  0.5194946997709902  0.2500015900295015
  0.3349721752072413  0.6683289441103791  0.2499995243007337
  0.3333762644217561  0.8100990963617517  0.2499983684237071
  0.3332048990595438  0.9526743657899311  0.2499927644432500
  0.4762339076331290  0.0957194688231313  0.2499918254410518
  0.4753675188317940  0.2379715309827634  0.2499986042297321
  0.4756414559199714  0.8112573039614582  0.2500015848643971
  0.4763179028456523  0.9537253657973384  0.2499929442796853
  0.6190532599092222  0.0960397169861224  0.2499946764873566
  0.6193128897317942  0.2383748035727542  0.2499995714377625
  0.6212103413494594  0.3794510652183113  0.2499987157577743
  0.6196985646065949  0.8141349098884230  0.2500030249366287
  0.6193059938348582  0.9541017967856319  0.2499978567255877
  0.7619336033664194  0.0957431621486608  0.2499978677095214
  0.7620244352881157  0.2382661369430084  0.2500003112598521
  0.7623524717583922  0.3809122684667524  0.2500015757108248
  0.7625206773647860  0.5247859906177623  0.2499993964355467
  0.7647301389441333  0.6667579479750113  0.2500057513363575
  0.7604253575829255  0.8079958554353139  0.2500058424135263
  0.7615139561281556  0.9525813789443270  0.2499979359815369
  0.9040460225605370  0.0945831083427115  0.2499966951903111
  0.9043511745173495  0.2379445996466380  0.2499997873804419
  0.9047404262010299  0.3810471087978970  0.2500029070866489
  0.9054914516015538  0.5240139778259343  0.2500009874206423
  0.9062054022647299  0.6669035613229778  0.2499990248332319
  0.9055036976122478  0.8098750856472646  0.2499994852351418
  0.9040252378701674  0.9515342946889299  0.2499951199853044
  0.4622873142980680  0.3546634542185260  0.2499987371304447
  0.4018006369075278  0.4174840201920458  0.2499983260383505
  0.6456183019131360  0.5394630657997196  0.2500011410949547
  0.5852591795673603  0.4160025871324027  0.2499986254106722
  0.5826796195534876  0.7422486355106925  0.2500028493098587
  0.4648853702387031  0.6831818843263282  0.2500024086374112
  0.4193634466069572  0.5576253872362064  0.2500021601285674
  0.6282146254538378  0.6623058350538775  0.2500691491802540
 
  0.00000000E+00  0.00000000E+00  0.00000000E+00
  0.00000000E+00  0.00000000E+00  0.00000000E+00
  0.00000000E+00  0.00000000E+00  0.00000000E+00
  0.00000000E+00  0.00000000E+00  0.00000000E+00
  0.00000000E+00  0.00000000E+00  0.00000000E+00
  0.00000000E+00  0.00000000E+00  0.00000000E+00
  0.00000000E+00  0.00000000E+00  0.00000000E+00
  0.00000000E+00  0.00000000E+00  0.00000000E+00
  0.00000000E+00  0.00000000E+00  0.00000000E+00
  0.00000000E+00  0.00000000E+00  0.00000000E+00
  0.00000000E+00  0.00000000E+00  0.00000000E+00
  0.00000000E+00  0.00000000E+00  0.00000000E+00
  0.00000000E+00  0.00000000E+00  0.00000000E+00
  0.00000000E+00  0.00000000E+00  0.00000000E+00
  0.00000000E+00  0.00000000E+00  0.00000000E+00
  0.00000000E+00  0.00000000E+00  0.00000000E+00
  0.00000000E+00  0.00000000E+00  0.00000000E+00
  0.00000000E+00  0.00000000E+00  0.00000000E+00
  0.00000000E+00  0.00000000E+00  0.00000000E+00
  0.00000000E+00  0.00000000E+00  0.00000000E+00
  0.00000000E+00  0.00000000E+00  0.00000000E+00
  0.00000000E+00  0.00000000E+00  0.00000000E+00
  0.00000000E+00  0.00000000E+00  0.00000000E+00
  0.00000000E+00  0.00000000E+00  0.00000000E+00
  0.00000000E+00  0.00000000E+00  0.00000000E+00
  0.00000000E+00  0.00000000E+00  0.00000000E+00
  0.00000000E+00  0.00000000E+00  0.00000000E+00
  0.00000000E+00  0.00000000E+00  0.00000000E+00
  0.00000000E+00  0.00000000E+00  0.00000000E+00
  0.00000000E+00  0.00000000E+00  0.00000000E+00
  0.00000000E+00  0.00000000E+00  0.00000000E+00
  0.00000000E+00  0.00000000E+00  0.00000000E+00
  0.00000000E+00  0.00000000E+00  0.00000000E+00
  0.00000000E+00  0.00000000E+00  0.00000000E+00
  0.00000000E+00  0.00000000E+00  0.00000000E+00
  0.00000000E+00  0.00000000E+00  0.00000000E+00
  0.00000000E+00  0.00000000E+00  0.00000000E+00
  0.00000000E+00  0.00000000E+00  0.00000000E+00
  0.00000000E+00  0.00000000E+00  0.00000000E+00
  0.00000000E+00  0.00000000E+00  0.00000000E+00
  0.00000000E+00  0.00000000E+00  0.00000000E+00
  0.00000000E+00  0.00000000E+00  0.00000000E+00
  0.00000000E+00  0.00000000E+00  0.00000000E+00
  0.00000000E+00  0.00000000E+00  0.00000000E+00
  0.00000000E+00  0.00000000E+00  0.00000000E+00
  0.00000000E+00  0.00000000E+00  0.00000000E+00
  0.00000000E+00  0.00000000E+00  0.00000000E+00
  0.00000000E+00  0.00000000E+00  0.00000000E+00
  0.00000000E+00  0.00000000E+00  0.00000000E+00
  0.00000000E+00  0.00000000E+00  0.00000000E+00
  0.00000000E+00  0.00000000E+00  0.00000000E+00
  0.00000000E+00  0.00000000E+00  0.00000000E+00
  0.00000000E+00  0.00000000E+00  0.00000000E+00
  0.00000000E+00  0.00000000E+00  0.00000000E+00
  0.00000000E+00  0.00000000E+00  0.00000000E+00
  0.00000000E+00  0.00000000E+00  0.00000000E+00
  0.00000000E+00  0.00000000E+00  0.00000000E+00
  0.00000000E+00  0.00000000E+00  0.00000000E+00
  0.00000000E+00  0.00000000E+00  0.00000000E+00
  0.00000000E+00  0.00000000E+00  0.00000000E+00
  0.00000000E+00  0.00000000E+00  0.00000000E+00
  0.00000000E+00  0.00000000E+00  0.00000000E+00
  0.00000000E+00  0.00000000E+00  0.00000000E+00
  0.00000000E+00  0.00000000E+00  0.00000000E+00
  0.00000000E+00  0.00000000E+00  0.00000000E+00
  0.00000000E+00  0.00000000E+00  0.00000000E+00
  0.00000000E+00  0.00000000E+00  0.00000000E+00
  0.00000000E+00  0.00000000E+00  0.00000000E+00
  0.00000000E+00  0.00000000E+00  0.00000000E+00
  0.00000000E+00  0.00000000E+00  0.00000000E+00
  0.00000000E+00  0.00000000E+00  0.00000000E+00
  0.00000000E+00  0.00000000E+00  0.00000000E+00
  0.00000000E+00  0.00000000E+00  0.00000000E+00
  0.00000000E+00  0.00000000E+00  0.00000000E+00
  0.00000000E+00  0.00000000E+00  0.00000000E+00
  0.00000000E+00  0.00000000E+00  0.00000000E+00
  0.00000000E+00  0.00000000E+00  0.00000000E+00
  0.00000000E+00  0.00000000E+00  0.00000000E+00
  0.00000000E+00  0.00000000E+00  0.00000000E+00
  0.00000000E+00  0.00000000E+00  0.00000000E+00
  0.00000000E+00  0.00000000E+00  0.00000000E+00
  0.00000000E+00  0.00000000E+00  0.00000000E+00
  0.00000000E+00  0.00000000E+00  0.00000000E+00
  0.00000000E+00  0.00000000E+00  0.00000000E+00
  0.00000000E+00  0.00000000E+00  0.00000000E+00
  0.00000000E+00  0.00000000E+00  0.00000000E+00
  0.00000000E+00  0.00000000E+00  0.00000000E+00
  0.00000000E+00  0.00000000E+00  0.00000000E+00
  0.00000000E+00  0.00000000E+00  0.00000000E+00
  0.00000000E+00  0.00000000E+00  0.00000000E+00
  0.00000000E+00  0.00000000E+00  0.00000000E+00
  0.00000000E+00  0.00000000E+00  0.00000000E+00
  0.00000000E+00  0.00000000E+00  0.00000000E+00
  0.00000000E+00  0.00000000E+00  0.00000000E+00
  0.00000000E+00  0.00000000E+00  0.00000000E+00
  0.00000000E+00  0.00000000E+00  0.00000000E+00
