C4                                      
    1.000000000000000     
    17.2710380553999983    0.0000000000000000    0.0000000000000000
    -8.6355190276999991   14.9571577057000002    0.0000000000000000
     0.0000000000000000    0.0000000000000000   15.0000000000000000
   C    F    N 
    82     2     6
Direct
 -0.0003878700890804 -0.0003177885463850  0.2499983516787678
 -0.0000168505634016  0.1428341128736256  0.2499978293712123
 -0.0000967104086415  0.2856469998147106  0.2499996070555454
 -0.0005324161712608  0.4285473350394014  0.2500007470359076
 -0.0002464684622128  0.5712905934327516  0.2499990089930751
  0.0007952674231439  0.7143362510651068  0.2500001587479374
 -0.0000929063269439  0.8571649711303373  0.2500004384835896
  0.1434340365865175  0.0007144165227916  0.2500013087512793
  0.1440879316283983  0.1442863321121767  0.2500010161685121
  0.1435944547006772  0.2863536682503710  0.2499899525666645
  0.1423909893388458  0.4290614485227376  0.2499980321753179
  0.1434661304729050  0.5715518319005494  0.2500016383232195
  0.1437196101270042  0.7142241343710363  0.2500014789980424
  0.1432471717046720  0.8573689080093401  0.2500034132134890
  0.2861141422648921  0.0001784085060494  0.2500049798864852
  0.2870256532926578  0.1438908266298004  0.2499957277251146
  0.2897947930632769  0.2898905688520731  0.2499881955557391
  0.2850047790069951  0.4329682517456621  0.2499889539210086
  0.2882170596708087  0.5694567965129813  0.2499969644269715
  0.2871695171500270  0.7141807388885215  0.2500008959405094
  0.2861370955267076  0.8572099771829692  0.2500038674104247
  0.4289901249504395  0.0001397048274122  0.2499996250750309
  0.4292569476381756  0.1440412041389943  0.2499997309345242
  0.4290557813236967  0.8562189753840193  0.2499952364150236
  0.5711800278647658 -0.0002926706076487  0.2499992039150260
  0.5713214120866001  0.1433471393039460  0.2500018586563219
  0.5735435251282072  0.2902632165654420  0.2500010391410917
  0.5732209546511322  0.8552590950922219  0.2499943820370165
  0.7135371662001432 -0.0006933761036315  0.2500009604318088
  0.7140158648027557  0.1429086198701533  0.2500077867344358
  0.7135567665906022  0.2860991600655579  0.2500019828180662
  0.7089882599877760  0.4260233252249424  0.2499975138386325
  0.7089403038877474  0.8552650537844327  0.2499995432704985
  0.8562607624770395 -0.0007996316899298  0.2499994462627060
  0.8566958109468724  0.1424963467989419  0.2500051959229688
  0.8565710335440699  0.2855630194572941  0.2500055622942414
  0.8560713010285264  0.4284744850024850  0.2499994784037504
  0.8561972638346013  0.5711047991624254  0.2499964651951983
  0.8579876542099986  0.7138721166589518  0.2499977432367505
  0.8549129564078561  0.8552952723836835  0.2499963617648106
  0.0481374288841531  0.0956612914503768  0.2499988138944088
  0.0478433053838760  0.2381315180510808  0.2499958478140880
  0.0468921115300492  0.3809595952955456  0.2500012459406541
  0.0478184523076452  0.5239412609692887  0.2500004024647157
  0.0481947291481789  0.6666807701110546  0.2499998572040387
  0.0478306695858198  0.8096190836532517  0.2500014476876156
  0.0477652558597938  0.9524655631116733  0.2499996474994593
  0.1913923261532701  0.0961054788883720  0.2499987157650247
  0.1927886388748672  0.2401504366091296  0.2499912834481460
  0.1896614248789743  0.3815628599699750  0.2499898174414610
  0.1913312766757435  0.5242215090858272  0.2499995419520893
  0.1914926001577479  0.6668477284371359  0.2500022564015279
  0.1910178170090989  0.8097252054139711  0.2500036409053052
  0.1909916070119484  0.9527546596984805  0.2500023321540467
  0.3340785233657047  0.0959171238213346  0.2500005216270068
  0.3386942427692202  0.2400947930241854  0.2499911118712242
  0.3386112391261811  0.6693852618575102  0.2499987126248271
  0.3339857214896387  0.8092784891230225  0.2499994149379247
  0.3335752499592544  0.9523978534980959  0.2500039937249819
  0.4764294545330937  0.0956351456061744  0.2500004810851745
  0.4743864351599672  0.2400905399264761  0.2499946059685320
  0.4740223260422964  0.8050534093706587  0.2499948566910317
  0.4762866082984743  0.9520061285188856  0.2499956506541816
  0.6185787930017822  0.0951826731994003  0.2500042057477930
  0.6184804505530589  0.2390902083292258  0.2500011404812079
  0.6183147771265608  0.9512476366523094  0.2499975524351711
  0.7615215842149065  0.0951255677780473  0.2500065755913715
  0.7614102391023724  0.2381302702168143  0.2500064995131919
  0.7604295716571299  0.3812433195530511  0.2499996131193687
  0.7593269431495289  0.5259897299444573  0.2499969698380972
  0.7626134267719914  0.6625061656291648  0.2500031915292222
  0.7578722162415097  0.8055385337053399  0.2500015966380771
  0.7606119351556764  0.9513675239801631  0.2499998847141373
  0.9043004636243964  0.0945293918944889  0.2500009043249620
  0.9044167681921845  0.2379210284623605  0.2500041512906860
  0.9039138136173062  0.3810831480430328  0.2500016106115268
  0.9040921977254306  0.5237707354854372  0.2499979348888836
  0.9052264411796798  0.6662959950587573  0.2499979112527556
  0.9041077268874527  0.8090863835581755  0.2499992962073834
  0.9036362543356830  0.9511104569859314  0.2499967290800755
  0.7155363120225112  0.7114037969278658  0.2500126707400052
  0.3320155651644816  0.3840058771943772  0.2499900881576467
  0.6266065349445883  0.6619601787708798  0.2500719321448486
  0.4209282674501543  0.4336277824231690  0.2500008890827750
  0.4286299711831789  0.2843616783320304  0.2499902054916625
  0.4284925275651210  0.7146945452897137  0.2499958141637477
  0.7156295285476122  0.5715666397686937  0.2500023683790790
  0.3319547905515672  0.5238939060013832  0.2499926419000095
  0.6191006497883923  0.3806371417458330  0.2499952853785026
  0.6189913358787732  0.8109976273630167  0.2499964547636300
 
  0.00000000E+00  0.00000000E+00  0.00000000E+00
  0.00000000E+00  0.00000000E+00  0.00000000E+00
  0.00000000E+00  0.00000000E+00  0.00000000E+00
  0.00000000E+00  0.00000000E+00  0.00000000E+00
  0.00000000E+00  0.00000000E+00  0.00000000E+00
  0.00000000E+00  0.00000000E+00  0.00000000E+00
  0.00000000E+00  0.00000000E+00  0.00000000E+00
  0.00000000E+00  0.00000000E+00  0.00000000E+00
  0.00000000E+00  0.00000000E+00  0.00000000E+00
  0.00000000E+00  0.00000000E+00  0.00000000E+00
  0.00000000E+00  0.00000000E+00  0.00000000E+00
  0.00000000E+00  0.00000000E+00  0.00000000E+00
  0.00000000E+00  0.00000000E+00  0.00000000E+00
  0.00000000E+00  0.00000000E+00  0.00000000E+00
  0.00000000E+00  0.00000000E+00  0.00000000E+00
  0.00000000E+00  0.00000000E+00  0.00000000E+00
  0.00000000E+00  0.00000000E+00  0.00000000E+00
  0.00000000E+00  0.00000000E+00  0.00000000E+00
  0.00000000E+00  0.00000000E+00  0.00000000E+00
  0.00000000E+00  0.00000000E+00  0.00000000E+00
  0.00000000E+00  0.00000000E+00  0.00000000E+00
  0.00000000E+00  0.00000000E+00  0.00000000E+00
  0.00000000E+00  0.00000000E+00  0.00000000E+00
  0.00000000E+00  0.00000000E+00  0.00000000E+00
  0.00000000E+00  0.00000000E+00  0.00000000E+00
  0.00000000E+00  0.00000000E+00  0.00000000E+00
  0.00000000E+00  0.00000000E+00  0.00000000E+00
  0.00000000E+00  0.00000000E+00  0.00000000E+00
  0.00000000E+00  0.00000000E+00  0.00000000E+00
  0.00000000E+00  0.00000000E+00  0.00000000E+00
  0.00000000E+00  0.00000000E+00  0.00000000E+00
  0.00000000E+00  0.00000000E+00  0.00000000E+00
  0.00000000E+00  0.00000000E+00  0.00000000E+00
  0.00000000E+00  0.00000000E+00  0.00000000E+00
  0.00000000E+00  0.00000000E+00  0.00000000E+00
  0.00000000E+00  0.00000000E+00  0.00000000E+00
  0.00000000E+00  0.00000000E+00  0.00000000E+00
  0.00000000E+00  0.00000000E+00  0.00000000E+00
  0.00000000E+00  0.00000000E+00  0.00000000E+00
  0.00000000E+00  0.00000000E+00  0.00000000E+00
  0.00000000E+00  0.00000000E+00  0.00000000E+00
  0.00000000E+00  0.00000000E+00  0.00000000E+00
  0.00000000E+00  0.00000000E+00  0.00000000E+00
  0.00000000E+00  0.00000000E+00  0.00000000E+00
  0.00000000E+00  0.00000000E+00  0.00000000E+00
  0.00000000E+00  0.00000000E+00  0.00000000E+00
  0.00000000E+00  0.00000000E+00  0.00000000E+00
  0.00000000E+00  0.00000000E+00  0.00000000E+00
  0.00000000E+00  0.00000000E+00  0.00000000E+00
  0.00000000E+00  0.00000000E+00  0.00000000E+00
  0.00000000E+00  0.00000000E+00  0.00000000E+00
  0.00000000E+00  0.00000000E+00  0.00000000E+00
  0.00000000E+00  0.00000000E+00  0.00000000E+00
  0.00000000E+00  0.00000000E+00  0.00000000E+00
  0.00000000E+00  0.00000000E+00  0.00000000E+00
  0.00000000E+00  0.00000000E+00  0.00000000E+00
  0.00000000E+00  0.00000000E+00  0.00000000E+00
  0.00000000E+00  0.00000000E+00  0.00000000E+00
  0.00000000E+00  0.00000000E+00  0.00000000E+00
  0.00000000E+00  0.00000000E+00  0.00000000E+00
  0.00000000E+00  0.00000000E+00  0.00000000E+00
  0.00000000E+00  0.00000000E+00  0.00000000E+00
  0.00000000E+00  0.00000000E+00  0.00000000E+00
  0.00000000E+00  0.00000000E+00  0.00000000E+00
  0.00000000E+00  0.00000000E+00  0.00000000E+00
  0.00000000E+00  0.00000000E+00  0.00000000E+00
  0.00000000E+00  0.00000000E+00  0.00000000E+00
  0.00000000E+00  0.00000000E+00  0.00000000E+00
  0.00000000E+00  0.00000000E+00  0.00000000E+00
  0.00000000E+00  0.00000000E+00  0.00000000E+00
  0.00000000E+00  0.00000000E+00  0.00000000E+00
  0.00000000E+00  0.00000000E+00  0.00000000E+00
  0.00000000E+00  0.00000000E+00  0.00000000E+00
  0.00000000E+00  0.00000000E+00  0.00000000E+00
  0.00000000E+00  0.00000000E+00  0.00000000E+00
  0.00000000E+00  0.00000000E+00  0.00000000E+00
  0.00000000E+00  0.00000000E+00  0.00000000E+00
  0.00000000E+00  0.00000000E+00  0.00000000E+00
  0.00000000E+00  0.00000000E+00  0.00000000E+00
  0.00000000E+00  0.00000000E+00  0.00000000E+00
  0.00000000E+00  0.00000000E+00  0.00000000E+00
  0.00000000E+00  0.00000000E+00  0.00000000E+00
  0.00000000E+00  0.00000000E+00  0.00000000E+00
  0.00000000E+00  0.00000000E+00  0.00000000E+00
  0.00000000E+00  0.00000000E+00  0.00000000E+00
  0.00000000E+00  0.00000000E+00  0.00000000E+00
  0.00000000E+00  0.00000000E+00  0.00000000E+00
  0.00000000E+00  0.00000000E+00  0.00000000E+00
  0.00000000E+00  0.00000000E+00  0.00000000E+00
  0.00000000E+00  0.00000000E+00  0.00000000E+00
