C    H    F    O 
    1.000000000000000     
  17.2710380553999983   0.0000000000000000   0.0000000000000000
  -8.6355190276999991  14.9571577057000002   0.0000000000000000
   0.0000000000000000   0.0000000000000000  15.0000000000000000
C    H    F    O 
88  9  1  1  
Selective dynamics
Direct
  0.9994847850236950  0.0004449081433505  0.5018636852122105 T T T
  0.9992271820463420  0.1432026540205038  0.5018195801213046 T T T
  0.9992429870439016  0.2861163322261178  0.5012153942415053 T T T
  0.9996725861080979  0.4291720806780241  0.4998688298664125 T T T
  0.0003245354044548  0.5722408026039164  0.4986063620980180 T T T
  0.0011877074979642  0.7154621047680803  0.4994746410883775 T T T
  0.0007143247978628  0.8584785641164008  0.5010708635686651 T T T
  0.1428752273101675  0.0011832739089320  0.4993505987692000 T T T
  0.1422636417923971  0.1436143018796335  0.5007534956522995 T T T
  0.1416161906813906  0.2858510985562431  0.5017219699541301 T T T
  0.1418535287860561  0.4290047447427121  0.5009876126632827 T T T
  0.1428079706002198  0.5720056123929418  0.4987902533116931 T T T
  0.1432482770099743  0.7151701545382546  0.4972103645273367 T T T
  0.1431898366755367  0.8583130943385388  0.4978271515576413 T T T
  0.2855084443656917  0.0008792717196173  0.4971267325151449 T T T
  0.2853768258667549  0.1435549477949305  0.4987366855962669 T T T
  0.2854160335416026  0.2877132113114754  0.5014247345389690 T T T
  0.2835372195593631  0.4283540879281004  0.5032579400327636 T T T
  0.2858509171545041  0.5712363607311093  0.5013421979808796 T T T
  0.2855783524737685  0.7154587898450347  0.4980440034379972 T T T
  0.2855502501389693  0.8583982951362364  0.4965875594865371 T T T
  0.4284427207971554  0.0012653037499640  0.4965958546428135 T T T
  0.4282303953242098  0.1436119123265609  0.4967220259745694 T T T
  0.4266386405792937  0.2833167266285602  0.4972076914529924 T T T
  0.4266754465872121  0.7174004562848594  0.5013061093235882 T T T
  0.4280915880899551  0.8586302997682891  0.4979130508772095 T T T
  0.5710863117133952  0.0016235314111120  0.4986569755906729 T T T
  0.5712002223775383  0.1437670394701716  0.4975393547396029 T T T
  0.5721657962847138  0.2870507824231076  0.4967573165594080 T T T
  0.5717211517231607  0.8595904552101450  0.5011967724227423 T T T
  0.7139756919428912  0.0009496289494721  0.5016276094013852 T T T
  0.7141678512302310  0.1437799055914364  0.4996578694086707 T T T
  0.7142491756258960  0.2864699790881547  0.4990839770236536 T T T
  0.7139805643206603  0.4284162631713424  0.5004229322716524 T T T
  0.7181329164072350  0.5735272066112402  0.5091634474711044 T T T
  0.7201001240051140  0.7161699563638213  0.5101308804385078 T T T
  0.7126540459888823  0.8578355694011927  0.5049802656415613 T T T
  0.8566400627539076  0.0005588624679693  0.5033298849575184 T T T
  0.8566039991840440  0.1434328321532472  0.5015105687606003 T T T
  0.8567911490127390  0.2862533978267460  0.5004272179688571 T T T
  0.8573635397447809  0.4292163924566580  0.5002293534257451 T T T
  0.8581445622162098  0.5725156625658445  0.5014018041488886 T T T
  0.8597359474894739  0.7159288950868800  0.5045319783271438 T T T
  0.8569693892984686  0.8573412928814770  0.5049145123356353 T T T
  0.0470843941246538  0.0957825283543887  0.5014508557159352 T T T
  0.0463963000242796  0.2381816605180907  0.5015375931371143 T T T
  0.0466349543280031  0.3813085702720693  0.5006106568794122 T T T
  0.0477234729375407  0.5244857975071375  0.4988881361285832 T T T
  0.0481515777385354  0.6675807876425903  0.4980956319172776 T T T
  0.0480852649289894  0.8106440397733079  0.4993097679178318 T T T
  0.0476604098936976  0.9533611769808500  0.5007101554247551 T T T
  0.1901443971421871  0.0960043602509554  0.4997244494897388 T T T
  0.1895967536715909  0.2387348274053823  0.5013625134033372 T T T
  0.1882769085755671  0.3807015270912636  0.5020018418364952 T T T
  0.1900159413762012  0.5242050169992976  0.5002778956091887 T T T
  0.1904737073808222  0.6675913718995059  0.4976874111671875 T T T
  0.1906436877630905  0.8106591186366926  0.4969458249893466 T T T
  0.1905420730829234  0.9534387542902248  0.4980190302689755 T T T
  0.3331286958821875  0.0962476512676136  0.4973304111687004 T T T
  0.3336912005563766  0.2387653446365636  0.4991611080568011 T T T
  0.3297092027006432  0.3805106098248057  0.5033673854613698 T T T
  0.3298352261171448  0.5224521147856974  0.5032538938567190 T T T
  0.3338793840059777  0.6685705126105930  0.5001557463002820 T T T
  0.3330879732693429  0.8106261976117800  0.4971797311596402 T T T
  0.3330566239324994  0.9534391714810562  0.4964997114937777 T T T
  0.4760343415876104  0.0961987598536312  0.4967734195123270 T T T
  0.4753209447393575  0.2387002015708612  0.4964191972326042 T T T
  0.4750909939152176  0.8107308551309089  0.4999730316518463 T T T
  0.4759396768603835  0.9538846038426574  0.4974395440329893 T T T
  0.6187495277270435  0.0964227178829979  0.4985384354374407 T T T
  0.6191309871947425  0.2389579690782229  0.4979005381016888 T T T
  0.6210354898698208  0.3803265406322570  0.4970146810865166 T T T
  0.6197293782618907  0.8145820578604802  0.5034425730323411 T T T
  0.6188768575476663  0.9542862429450796  0.5004562895229386 T T T
  0.7616829981477149  0.0962352620622467  0.5009222746778873 T T T
  0.7618277385179829  0.2387298359674545  0.4996794112590965 T T T
  0.7621577891913989  0.3815010658501489  0.5001606220669539 T T T
  0.7625189569389010  0.5254331450057153  0.5036141547844668 T T T
  0.7648694209327349  0.6673103366435813  0.5085916118458347 T T T
  0.7606223175912759  0.8087454119073404  0.5070752724202184 T T T
  0.7614804548884940  0.9532583990744148  0.5034740303649441 T T T
  0.9040247765600148  0.0954651132767328  0.5022412618935932 T T T
  0.9041306383046032  0.2385491052779836  0.5010642367548848 T T T
  0.9045028758627962  0.3816153030069844  0.5001670515945431 T T T
  0.9052521617835534  0.5246988517855498  0.4997354384129837 T T T
  0.9061437759262080  0.6676691025066331  0.5018379366408476 T T T
  0.9055425072999208  0.8107334829024564  0.5036786042986681 T T T
  0.9041891284697384  0.9525311621126916  0.5033819666701824 T T T
  0.4626419746724005  0.3558176650724800  0.4961247121603050 T T T
  0.4023546512068311  0.4197226834855003  0.5029143569135983 T T T
  0.4025362752652980  0.5556465789162375  0.5041110278778584 T T T
  0.6458214831113156  0.5392838140977451  0.5134554430222182 T T T
  0.5852481397316514  0.4169338432997171  0.4931279605867531 T T T
  0.5826567356952319  0.7427259432685386  0.5041332322488730 T T T
  0.4628351357905622  0.6810943019263399  0.5036897855398392 T T T
  0.5618737213546814  0.5683090944097386  0.3965660995679784 T T T
  0.4933504377592108  0.4900686620365230  0.3378728303739284 T T T
  0.6281763259157519  0.6628090621641269  0.5128653451455243 T T T
  0.5232884283698569  0.5036891330377307  0.3953361829999977 T T F
