C    H    N    O                        
   1.00000000000000     
    17.2710380553999983    0.0000000000000000    0.0000000000000000
    -8.6355190276999991   14.9571577057000002    0.0000000000000000
     0.0000000000000000    0.0000000000000000   15.0000000000000000
  C/253f7b50bb8d  H/030f79b5d3ab  N/e053789ff3a6  O/818f92134a0a
              84               6               4               1
Selective dynamics
Direct
  0.0014966989045675  0.0006798807787760  0.4994973200469133   T   T   T
  0.0010016284570611  0.1431668355889286  0.4995537254320155   T   T   T
  0.0006555823001264  0.2860107087578143  0.4995741023030718   T   T   T
  0.0009898000842909  0.4291714712194690  0.4997028602274085   T   T   T
  0.0014796841605786  0.5721334974712633  0.4997804018414485   T   T   T
  0.0018442775949623  0.7149866428308513  0.4997304099302369   T   T   T
  0.0018688426370232  0.8582228923506463  0.4996580728038822   T   T   T
  0.1452690835751511  0.0018237819340001  0.5002069998474283   T   T   T
  0.1448328048898659  0.1445252524836036  0.5005555849009156   T   T   T
  0.1429825247169845  0.2859729425565689  0.5008989234106735   T   T   T
  0.1429868941744346  0.4283453613580335  0.5010181063651800   T   T   T
  0.1448523648052387  0.5716038589695742  0.5008915211854443   T   T   T
  0.1452701505819647  0.7147390533102040  0.5003871879906967   T   T   T
  0.1451825437242888  0.8582498874701798  0.5000253974302211   T   T   T
  0.2881535476851056  0.0018763152777126  0.5004679114914339   T   T   T
  0.2884318961237042  0.1465538072845547  0.5013990783208513   T   T   T
  0.2877456128600144  0.2927346697029520  0.5029482025060901   T   T   T
  0.2855802062932042  0.4284362593245419  0.5039200197258822   T   T   T
  0.2877931465325361  0.5663553761901028  0.5031269459802630   T   T   T
  0.2884980373314008  0.7132725302526666  0.5015013521752039   T   T   T
  0.2881734035119123  0.8576521721805008  0.5004048912378352   T   T   T
  0.4306969255618043  0.0010257735295198  0.5003653038000735   T   T   T
  0.4313395717141546  0.1456952341936386  0.5007194794029317   T   T   T
  0.4305362481526558  0.2873146125427155  0.5012446667761168   T   T   T
  0.4305932986353724  0.7145695649840249  0.5013867371805745   T   T   T
  0.4314033495442828  0.8570291933453191  0.5007144761816420   T   T   T
  0.5730164241811764  0.0005988284997827  0.4999645423477972   T   T   T
  0.5729923192359294  0.1437699216249655  0.4999237023705518   T   T   T
  0.5766526921540489  0.2902785689380281  0.5001647145513957   T   T   T
  0.5767248013774093  0.8577540119960503  0.5002922116435968   T   T   T
  0.7159197798915429  0.0010308490439286  0.4995369468041631   T   T   T
  0.7157382836529109  0.1435406454791490  0.4993248680419669   T   T   T
  0.7159109519514573  0.2862277100852850  0.4994446462861148   T   T   T
  0.7119239733787737  0.4257009439980095  0.5002057273212088   T   T   T
  0.7162399651262774  0.5724350359293311  0.5026748564720549   T   T   T
  0.7162716126363620  0.7151605409245718  0.5027252050566986   T   T   T
  0.7119958098090535  0.8576046517541087  0.5003327689222985   T   T   T
  0.8582885180928912  0.0003131535873777  0.4993889857696416   T   T   T
  0.8582970008509960  0.1433794762994793  0.4991148320051124   T   T   T
  0.8582876980543404  0.2862391757552132  0.4990347087133600   T   T   T
  0.8582593481435410  0.4293054624598085  0.4994259257273796   T   T   T
  0.8574858326439383  0.5715512275853243  0.4998682545315916   T   T   T
  0.8588535359512903  0.7151029228600336  0.5003409063195150   T   T   T
  0.8575296034149744  0.8573116957926530  0.4998934184934001   T   T   T
  0.0493025804889555  0.0961417685883532  0.4997711791450072   T   T   T
  0.0478553054421553  0.2381743387114952  0.4999052062689842   T   T   T
  0.0478774995072229  0.3810538211172059  0.5000019555561082   T   T   T
  0.0492991456384786  0.5244879875978015  0.5000823872755618   T   T   T
  0.0496377757753308  0.6674675114476258  0.4999234335543576   T   T   T
  0.0495226098177284  0.8104196852796761  0.4997891146618585   T   T   T
  0.0496595235442783  0.9535101276881193  0.4997023129852849   T   T   T
  0.1928764179810329  0.0972601166644509  0.5008084872686283   T   T   T
  0.1918169900932725  0.2400413607784913  0.5012968170555965   T   T   T
  0.1899251401969195  0.3806235318876858  0.5016262485766205   T   T   T
  0.1918487320068252  0.5230952433649776  0.5015340397678472   T   T   T
  0.1929116764589054  0.6669374551749527  0.5010558639095422   T   T   T
  0.1928803084047885  0.8103523738145384  0.5002665556771149   T   T   T
  0.1928873499833514  0.9538392674883056  0.5002462285513474   T   T   T
  0.3359622551742163  0.0982951735228852  0.5008747844204962   T   T   T
  0.3369695994860180  0.2431117433218262  0.5021329869947309   T   T   T
  0.3370188152695519  0.6652254841505538  0.5022754545414756   T   T   T
  0.3360026678893462  0.8090701031871106  0.5008586463772460   T   T   T
  0.3353033233410230  0.9533410146462273  0.5003757759015386   T   T   T
  0.4780054359773800  0.0965565703696498  0.5003301429467015   T   T   T
  0.4788103164130249  0.2416882252840935  0.5006776128412582   T   T   T
  0.4788652779752880  0.8084782563148494  0.5007751976265169   T   T   T
  0.4780396903220279  0.9528468050631176  0.5003366365699833   T   T   T
  0.6203126347714800  0.0958347359505183  0.4997026090694305   T   T   T
  0.6211356197557052  0.2393489784899216  0.4998026491272114   T   T   T
  0.6211790245430961  0.9531639284135451  0.4998995127736592   T   T   T
  0.7634295691342530  0.0962586574753104  0.4992548974271074   T   T   T
  0.7634277110826844  0.2385013596470031  0.4991608027515539   T   T   T
  0.7627803454697926  0.3810708948420896  0.4995939465019603   T   T   T
  0.7609364272435144  0.5239978465699124  0.5007596205397249   T   T   T
  0.7629663709387131  0.6671460977783070  0.5020274932378328   T   T   T
  0.7609872721565409  0.8083105952219896  0.5008773167748188   T   T   T
  0.7628301582474108  0.9530840523772994  0.4996665480594658   T   T   T
  0.9057459271701092  0.0953463033041118  0.4992561857599114   T   T   T
  0.9056187235290025  0.2384615740102021  0.4990663644761426   T   T   T
  0.9057149525650630  0.3817154040407047  0.4992920826464839   T   T   T
  0.9059258775642292  0.5246705033352015  0.4995480340632525   T   T   T
  0.9059447985281111  0.6670652038191420  0.4998727998737351   T   T   T
  0.9059742936995931  0.8102509100240383  0.4998801580575218   T   T   T
  0.9059647320593598  0.9526496372232529  0.4994264402252639   T   T   T
  0.4683583832600533  0.3600731921373850  0.5003515534770671   T   T   T
  0.6433644321987231  0.6777705160945899  0.5052889197380708   T   T   T
  0.6433326028784023  0.5369316249392000  0.5052624634142120   T   T   T
  0.4683999432168164  0.6796163462667622  0.5005083769677086   T   T   T
  0.4613578712004553  0.5592047636553801  0.5537033456141955   T   T   T
  0.4612007499520416  0.4734352858575264  0.5534972333557278   T   T   T
  0.3319049423946296  0.3830573934596515  0.5051916527208675   T   T   T
  0.3319223906238378  0.5201583898852746  0.5052662367885787   T   T   T
  0.6219470360975379  0.3806237601940197  0.5002823123937503   T   T   T
  0.6220157348607032  0.8127048021563752  0.5004445408164528   T   T   T
  0.5012603345714055  0.5362341608660017  0.5697759538333358   T   T   F
 
  0.00000000E+00  0.00000000E+00  0.00000000E+00
  0.00000000E+00  0.00000000E+00  0.00000000E+00
  0.00000000E+00  0.00000000E+00  0.00000000E+00
  0.00000000E+00  0.00000000E+00  0.00000000E+00
  0.00000000E+00  0.00000000E+00  0.00000000E+00
  0.00000000E+00  0.00000000E+00  0.00000000E+00
  0.00000000E+00  0.00000000E+00  0.00000000E+00
  0.00000000E+00  0.00000000E+00  0.00000000E+00
  0.00000000E+00  0.00000000E+00  0.00000000E+00
  0.00000000E+00  0.00000000E+00  0.00000000E+00
  0.00000000E+00  0.00000000E+00  0.00000000E+00
  0.00000000E+00  0.00000000E+00  0.00000000E+00
  0.00000000E+00  0.00000000E+00  0.00000000E+00
  0.00000000E+00  0.00000000E+00  0.00000000E+00
  0.00000000E+00  0.00000000E+00  0.00000000E+00
  0.00000000E+00  0.00000000E+00  0.00000000E+00
  0.00000000E+00  0.00000000E+00  0.00000000E+00
  0.00000000E+00  0.00000000E+00  0.00000000E+00
  0.00000000E+00  0.00000000E+00  0.00000000E+00
  0.00000000E+00  0.00000000E+00  0.00000000E+00
  0.00000000E+00  0.00000000E+00  0.00000000E+00
  0.00000000E+00  0.00000000E+00  0.00000000E+00
  0.00000000E+00  0.00000000E+00  0.00000000E+00
  0.00000000E+00  0.00000000E+00  0.00000000E+00
  0.00000000E+00  0.00000000E+00  0.00000000E+00
  0.00000000E+00  0.00000000E+00  0.00000000E+00
  0.00000000E+00  0.00000000E+00  0.00000000E+00
  0.00000000E+00  0.00000000E+00  0.00000000E+00
  0.00000000E+00  0.00000000E+00  0.00000000E+00
  0.00000000E+00  0.00000000E+00  0.00000000E+00
  0.00000000E+00  0.00000000E+00  0.00000000E+00
  0.00000000E+00  0.00000000E+00  0.00000000E+00
  0.00000000E+00  0.00000000E+00  0.00000000E+00
  0.00000000E+00  0.00000000E+00  0.00000000E+00
  0.00000000E+00  0.00000000E+00  0.00000000E+00
  0.00000000E+00  0.00000000E+00  0.00000000E+00
  0.00000000E+00  0.00000000E+00  0.00000000E+00
  0.00000000E+00  0.00000000E+00  0.00000000E+00
  0.00000000E+00  0.00000000E+00  0.00000000E+00
  0.00000000E+00  0.00000000E+00  0.00000000E+00
  0.00000000E+00  0.00000000E+00  0.00000000E+00
  0.00000000E+00  0.00000000E+00  0.00000000E+00
  0.00000000E+00  0.00000000E+00  0.00000000E+00
  0.00000000E+00  0.00000000E+00  0.00000000E+00
  0.00000000E+00  0.00000000E+00  0.00000000E+00
  0.00000000E+00  0.00000000E+00  0.00000000E+00
  0.00000000E+00  0.00000000E+00  0.00000000E+00
  0.00000000E+00  0.00000000E+00  0.00000000E+00
  0.00000000E+00  0.00000000E+00  0.00000000E+00
  0.00000000E+00  0.00000000E+00  0.00000000E+00
  0.00000000E+00  0.00000000E+00  0.00000000E+00
  0.00000000E+00  0.00000000E+00  0.00000000E+00
  0.00000000E+00  0.00000000E+00  0.00000000E+00
  0.00000000E+00  0.00000000E+00  0.00000000E+00
  0.00000000E+00  0.00000000E+00  0.00000000E+00
  0.00000000E+00  0.00000000E+00  0.00000000E+00
  0.00000000E+00  0.00000000E+00  0.00000000E+00
  0.00000000E+00  0.00000000E+00  0.00000000E+00
  0.00000000E+00  0.00000000E+00  0.00000000E+00
  0.00000000E+00  0.00000000E+00  0.00000000E+00
  0.00000000E+00  0.00000000E+00  0.00000000E+00
  0.00000000E+00  0.00000000E+00  0.00000000E+00
  0.00000000E+00  0.00000000E+00  0.00000000E+00
  0.00000000E+00  0.00000000E+00  0.00000000E+00
  0.00000000E+00  0.00000000E+00  0.00000000E+00
  0.00000000E+00  0.00000000E+00  0.00000000E+00
  0.00000000E+00  0.00000000E+00  0.00000000E+00
  0.00000000E+00  0.00000000E+00  0.00000000E+00
  0.00000000E+00  0.00000000E+00  0.00000000E+00
  0.00000000E+00  0.00000000E+00  0.00000000E+00
  0.00000000E+00  0.00000000E+00  0.00000000E+00
  0.00000000E+00  0.00000000E+00  0.00000000E+00
  0.00000000E+00  0.00000000E+00  0.00000000E+00
  0.00000000E+00  0.00000000E+00  0.00000000E+00
  0.00000000E+00  0.00000000E+00  0.00000000E+00
  0.00000000E+00  0.00000000E+00  0.00000000E+00
  0.00000000E+00  0.00000000E+00  0.00000000E+00
  0.00000000E+00  0.00000000E+00  0.00000000E+00
  0.00000000E+00  0.00000000E+00  0.00000000E+00
  0.00000000E+00  0.00000000E+00  0.00000000E+00
  0.00000000E+00  0.00000000E+00  0.00000000E+00
  0.00000000E+00  0.00000000E+00  0.00000000E+00
  0.00000000E+00  0.00000000E+00  0.00000000E+00
  0.00000000E+00  0.00000000E+00  0.00000000E+00
  0.00000000E+00  0.00000000E+00  0.00000000E+00
  0.00000000E+00  0.00000000E+00  0.00000000E+00
  0.00000000E+00  0.00000000E+00  0.00000000E+00
  0.00000000E+00  0.00000000E+00  0.00000000E+00
  0.00000000E+00  0.00000000E+00  0.00000000E+00
  0.00000000E+00  0.00000000E+00  0.00000000E+00
  0.00000000E+00  0.00000000E+00  0.00000000E+00
  0.00000000E+00  0.00000000E+00  0.00000000E+00
  0.00000000E+00  0.00000000E+00  0.00000000E+00
  0.00000000E+00  0.00000000E+00  0.00000000E+00
  0.00000000E+00  0.00000000E+00  0.00000000E+00
