C    H    N    O                        
    1.000000000000000     
    17.2710380553999983    0.0000000000000000    0.0000000000000000
    -8.6355190276999991   14.9571577057000002    0.0000000000000000
     0.0000000000000000    0.0000000000000000   15.0000000000000000
   C    H    N    O 
    84     6     4     1
Selective dynamics
Direct
  0.0014966989045672  0.0006798807787750  0.4994973200469153   T   T   T
  0.0010016284570646  0.1431668355889295  0.4995537254320138   T   T   T
  0.0006555823001248  0.2860107087578119  0.4995741023030713   T   T   T
  0.0009898000842936  0.4291714712194681  0.4997028602274112   T   T   T
  0.0014796841605779  0.5721334974712621  0.4997804018414473   T   T   T
  0.0018442775949633  0.7149866428308499  0.4997304099302393   T   T   T
  0.0018688426370229  0.8582228923506470  0.4996580728038823   T   T   T
  0.1452690835751508  0.0018237819340016  0.5002069998474276   T   T   T
  0.1448328048898661  0.1445252524836006  0.5005555849009169   T   T   T
  0.1429825247169847  0.2859729425565710  0.5008989234106727   T   T   T
  0.1429868941744368  0.4283453613580363  0.5010181063651785   T   T   T
  0.1448523648052417  0.5716038589695717  0.5008915211854434   T   T   T
  0.1452701505819645  0.7147390533102070  0.5003871879906997   T   T   T
  0.1451825437242878  0.8582498874701763  0.5000253974302220   T   T   T
  0.2881535476851087  0.0018763152777099  0.5004679114914315   T   T   T
  0.2884318961237061  0.1465538072845566  0.5013990783208485   T   T   T
  0.2877456128600164  0.2927346697029553  0.5029482025060924   T   T   T
  0.2855802062932037  0.4284362593245384  0.5039200197258829   T   T   T
  0.2877931465325363  0.5663553761900998  0.5031269459802614   T   T   T
  0.2884980373313973  0.7132725302526635  0.5015013521752071   T   T   T
  0.2881734035119142  0.8576521721805043  0.5004048912378326   T   T   T
  0.4306969255618058  0.0010257735295188  0.5003653038000768   T   T   T
  0.4313395717141522  0.1456952341936371  0.5007194794029314   T   T   T
  0.4305362481526562  0.2873146125427128  0.5012446667761176   T   T   T
  0.4305932986353731  0.7145695649840262  0.5013867371805717   T   T   T
  0.4314033495442823  0.8570291933453180  0.5007144761816411   T   T   T
  0.5730164241811780  0.0005988284997824  0.4999645423477971   T   T   T
  0.5729923192359300  0.1437699216249689  0.4999237023705499   T   T   T
  0.5766526921540522  0.2902785689380287  0.5001647145513948   T   T   T
  0.5767248013774128  0.8577540119960497  0.5002922116435995   T   T   T
  0.7159197798915419  0.0010308490439275  0.4995369468041657   T   T   T
  0.7157382836529087  0.1435406454791499  0.4993248680419664   T   T   T
  0.7159109519514575  0.2862277100852869  0.4994446462861114   T   T   T
  0.7119239733787719  0.4257009439980122  0.5002057273212085   T   T   T
  0.7162399651262807  0.5724350359293285  0.5026748564720585   T   T   T
  0.7162716126363600  0.7151605409245739  0.5027252050566953   T   T   T
  0.7119958098090559  0.8576046517541094  0.5003327689222961   T   T   T
  0.8582885180928947  0.0003131535873805  0.4993889857696440   T   T   T
  0.8582970008509928  0.1433794762994800  0.4991148320051140   T   T   T
  0.8582876980543438  0.2862391757552109  0.4990347087133603   T   T   T
  0.8582593481435395  0.4293054624598093  0.4994259257273781   T   T   T
  0.8574858326439354  0.5715512275853277  0.4998682545315913   T   T   T
  0.8588535359512912  0.7151029228600315  0.5003409063195147   T   T   T
  0.8575296034149773  0.8573116957926521  0.4998934184934007   T   T   T
  0.0493025804889531  0.0961417685883510  0.4997711791450050   T   T   T
  0.0478553054421530  0.2381743387114971  0.4999052062689857   T   T   T
  0.0478774995072240  0.3810538211172046  0.5000019555561080   T   T   T
  0.0492991456384778  0.5244879875978049  0.5000823872755596   T   T   T
  0.0496377757753325  0.6674675114476255  0.4999234335543587   T   T   T
  0.0495226098177273  0.8104196852796755  0.4997891146618580   T   T   T
  0.0496595235442758  0.9535101276881167  0.4997023129852840   T   T   T
  0.1928764179810297  0.0972601166644512  0.5008084872686248   T   T   T
  0.1918169900932755  0.2400413607784909  0.5012968170555986   T   T   T
  0.1899251401969169  0.3806235318876848  0.5016262485766182   T   T   T
  0.1918487320068222  0.5230952433649760  0.5015340397678464   T   T   T
  0.1929116764589076  0.6669374551749540  0.5010558639095389   T   T   T
  0.1928803084047893  0.8103523738145403  0.5002665556771174   T   T   T
  0.1928873499833514  0.9538392674883088  0.5002462285513476   T   T   T
  0.3359622551742137  0.0982951735228851  0.5008747844204944   T   T   T
  0.3369695994860161  0.2431117433218292  0.5021329869947293   T   T   T
  0.3370188152695511  0.6652254841505535  0.5022754545414785   T   T   T
  0.3360026678893464  0.8090701031871133  0.5008586463772464   T   T   T
  0.3353033233410244  0.9533410146462242  0.5003757759015380   T   T   T
  0.4780054359773816  0.0965565703696521  0.5003301429467022   T   T   T
  0.4788103164130217  0.2416882252840962  0.5006776128412557   T   T   T
  0.4788652779752904  0.8084782563148467  0.5007751976265180   T   T   T
  0.4780396903220249  0.9528468050631183  0.5003366365699803   T   T   T
  0.6203126347714769  0.0958347359505152  0.4997026090694308   T   T   T
  0.6211356197557026  0.2393489784899218  0.4998026491272122   T   T   T
  0.6211790245430938  0.9531639284135428  0.4998995127736598   T   T   T
  0.7634295691342518  0.0962586574753108  0.4992548974271048   T   T   T
  0.7634277110826865  0.2385013596470049  0.4991608027515513   T   T   T
  0.7627803454697943  0.3810708948420895  0.4995939465019572   T   T   T
  0.7609364272435171  0.5239978465699090  0.5007596205397256   T   T   T
  0.7629663709387154  0.6671460977783077  0.5020274932378320   T   T   T
  0.7609872721565386  0.8083105952219890  0.5008773167748208   T   T   T
  0.7628301582474080  0.9530840523773019  0.4996665480594663   T   T   T
  0.9057459271701087  0.0953463033041113  0.4992561857599130   T   T   T
  0.9056187235290059  0.2384615740102047  0.4990663644761456   T   T   T
  0.9057149525650626  0.3817154040407068  0.4992920826464845   T   T   T
  0.9059258775642265  0.5246705033352005  0.4995480340632521   T   T   T
  0.9059447985281099  0.6670652038191436  0.4998727998737327   T   T   T
  0.9059742936995944  0.8102509100240350  0.4998801580575202   T   T   T
  0.9059647320593606  0.9526496372232548  0.4994264402252664   T   T   T
  0.4683583832600501  0.3600731921373884  0.5003515534770701   T   T   T
  0.6433644321987212  0.6777705160945875  0.5052889197380686   T   T   T
  0.6433326028784015  0.5369316249392007  0.5052624634142151   T   T   T
  0.4683999432168178  0.6796163462667600  0.5005083769677099   T   T   T
  0.4613578712004565  0.5592047636553830  0.5537033456141934   T   T   T
  0.4612007499520404  0.4734352858575293  0.5534972333557263   T   T   T
  0.3319049423946275  0.3830573934596530  0.5051916527208646   T   T   T
  0.3319223906238345  0.5201583898852753  0.5052662367885780   T   T   T
  0.6219470360975364  0.3806237601940179  0.5002823123937501   T   T   T
  0.6220157348607009  0.8127048021563720  0.5004445408164561   T   T   T
  0.5012603345714053  0.5362341608660017  0.5697759538333358   T   T   F
 
  0.00000000E+00  0.00000000E+00  0.00000000E+00
  0.00000000E+00  0.00000000E+00  0.00000000E+00
  0.00000000E+00  0.00000000E+00  0.00000000E+00
  0.00000000E+00  0.00000000E+00  0.00000000E+00
  0.00000000E+00  0.00000000E+00  0.00000000E+00
  0.00000000E+00  0.00000000E+00  0.00000000E+00
  0.00000000E+00  0.00000000E+00  0.00000000E+00
  0.00000000E+00  0.00000000E+00  0.00000000E+00
  0.00000000E+00  0.00000000E+00  0.00000000E+00
  0.00000000E+00  0.00000000E+00  0.00000000E+00
  0.00000000E+00  0.00000000E+00  0.00000000E+00
  0.00000000E+00  0.00000000E+00  0.00000000E+00
  0.00000000E+00  0.00000000E+00  0.00000000E+00
  0.00000000E+00  0.00000000E+00  0.00000000E+00
  0.00000000E+00  0.00000000E+00  0.00000000E+00
  0.00000000E+00  0.00000000E+00  0.00000000E+00
  0.00000000E+00  0.00000000E+00  0.00000000E+00
  0.00000000E+00  0.00000000E+00  0.00000000E+00
  0.00000000E+00  0.00000000E+00  0.00000000E+00
  0.00000000E+00  0.00000000E+00  0.00000000E+00
  0.00000000E+00  0.00000000E+00  0.00000000E+00
  0.00000000E+00  0.00000000E+00  0.00000000E+00
  0.00000000E+00  0.00000000E+00  0.00000000E+00
  0.00000000E+00  0.00000000E+00  0.00000000E+00
  0.00000000E+00  0.00000000E+00  0.00000000E+00
  0.00000000E+00  0.00000000E+00  0.00000000E+00
  0.00000000E+00  0.00000000E+00  0.00000000E+00
  0.00000000E+00  0.00000000E+00  0.00000000E+00
  0.00000000E+00  0.00000000E+00  0.00000000E+00
  0.00000000E+00  0.00000000E+00  0.00000000E+00
  0.00000000E+00  0.00000000E+00  0.00000000E+00
  0.00000000E+00  0.00000000E+00  0.00000000E+00
  0.00000000E+00  0.00000000E+00  0.00000000E+00
  0.00000000E+00  0.00000000E+00  0.00000000E+00
  0.00000000E+00  0.00000000E+00  0.00000000E+00
  0.00000000E+00  0.00000000E+00  0.00000000E+00
  0.00000000E+00  0.00000000E+00  0.00000000E+00
  0.00000000E+00  0.00000000E+00  0.00000000E+00
  0.00000000E+00  0.00000000E+00  0.00000000E+00
  0.00000000E+00  0.00000000E+00  0.00000000E+00
  0.00000000E+00  0.00000000E+00  0.00000000E+00
  0.00000000E+00  0.00000000E+00  0.00000000E+00
  0.00000000E+00  0.00000000E+00  0.00000000E+00
  0.00000000E+00  0.00000000E+00  0.00000000E+00
  0.00000000E+00  0.00000000E+00  0.00000000E+00
  0.00000000E+00  0.00000000E+00  0.00000000E+00
  0.00000000E+00  0.00000000E+00  0.00000000E+00
  0.00000000E+00  0.00000000E+00  0.00000000E+00
  0.00000000E+00  0.00000000E+00  0.00000000E+00
  0.00000000E+00  0.00000000E+00  0.00000000E+00
  0.00000000E+00  0.00000000E+00  0.00000000E+00
  0.00000000E+00  0.00000000E+00  0.00000000E+00
  0.00000000E+00  0.00000000E+00  0.00000000E+00
  0.00000000E+00  0.00000000E+00  0.00000000E+00
  0.00000000E+00  0.00000000E+00  0.00000000E+00
  0.00000000E+00  0.00000000E+00  0.00000000E+00
  0.00000000E+00  0.00000000E+00  0.00000000E+00
  0.00000000E+00  0.00000000E+00  0.00000000E+00
  0.00000000E+00  0.00000000E+00  0.00000000E+00
  0.00000000E+00  0.00000000E+00  0.00000000E+00
  0.00000000E+00  0.00000000E+00  0.00000000E+00
  0.00000000E+00  0.00000000E+00  0.00000000E+00
  0.00000000E+00  0.00000000E+00  0.00000000E+00
  0.00000000E+00  0.00000000E+00  0.00000000E+00
  0.00000000E+00  0.00000000E+00  0.00000000E+00
  0.00000000E+00  0.00000000E+00  0.00000000E+00
  0.00000000E+00  0.00000000E+00  0.00000000E+00
  0.00000000E+00  0.00000000E+00  0.00000000E+00
  0.00000000E+00  0.00000000E+00  0.00000000E+00
  0.00000000E+00  0.00000000E+00  0.00000000E+00
  0.00000000E+00  0.00000000E+00  0.00000000E+00
  0.00000000E+00  0.00000000E+00  0.00000000E+00
  0.00000000E+00  0.00000000E+00  0.00000000E+00
  0.00000000E+00  0.00000000E+00  0.00000000E+00
  0.00000000E+00  0.00000000E+00  0.00000000E+00
  0.00000000E+00  0.00000000E+00  0.00000000E+00
  0.00000000E+00  0.00000000E+00  0.00000000E+00
  0.00000000E+00  0.00000000E+00  0.00000000E+00
  0.00000000E+00  0.00000000E+00  0.00000000E+00
  0.00000000E+00  0.00000000E+00  0.00000000E+00
  0.00000000E+00  0.00000000E+00  0.00000000E+00
  0.00000000E+00  0.00000000E+00  0.00000000E+00
  0.00000000E+00  0.00000000E+00  0.00000000E+00
  0.00000000E+00  0.00000000E+00  0.00000000E+00
  0.00000000E+00  0.00000000E+00  0.00000000E+00
  0.00000000E+00  0.00000000E+00  0.00000000E+00
  0.00000000E+00  0.00000000E+00  0.00000000E+00
  0.00000000E+00  0.00000000E+00  0.00000000E+00
  0.00000000E+00  0.00000000E+00  0.00000000E+00
  0.00000000E+00  0.00000000E+00  0.00000000E+00
  0.00000000E+00  0.00000000E+00  0.00000000E+00
  0.00000000E+00  0.00000000E+00  0.00000000E+00
  0.00000000E+00  0.00000000E+00  0.00000000E+00
  0.00000000E+00  0.00000000E+00  0.00000000E+00
  0.00000000E+00  0.00000000E+00  0.00000000E+00
