C    H    F    O 
    1.000000000000000     
  17.2710380553999983   0.0000000000000000   0.0000000000000000
  -8.6355190276999991  14.9571577057000002   0.0000000000000000
   0.0000000000000000   0.0000000000000000  15.0000000000000000
C    H    F    O 
88  9  1  1  
Selective dynamics
Direct
  0.9994731132196500  0.0004715406233548  0.4980186773548334 T T T
  0.9992437634740828  0.1432649338684047  0.4981096156254154 T T T
  0.9992365535977996  0.2861921778897420  0.4990234540661933 T T T
  0.9996871647236620  0.4292765490532307  0.5005562668593452 T T T
  0.0003516269351888  0.5723675319471387  0.5016714057143088 T T T
  0.0011948505017586  0.7155470472413006  0.5004969218539610 T T T
  0.0007317581745930  0.8584990968561877  0.4988875667707892 T T T
  0.1428776177491078  0.0012181703170332  0.5004343047085006 T T T
  0.1422583799782884  0.1436317234768640  0.4988823638720857 T T T
  0.1415896566158229  0.2858671113668456  0.4981837698146218 T T T
  0.1418531217881369  0.4290532882979884  0.4992974895708925 T T T
  0.1428199465350822  0.5720898730892301  0.5015927424989457 T T T
  0.1432656802332112  0.7152494196812815  0.5030531063148347 T T T
  0.1432135661477736  0.8583768943701938  0.5021917276707688 T T T
  0.2855558395544891  0.0009275495338084  0.5028434429661405 T T T
  0.2853811433978953  0.1435524488329784  0.5009624498211522 T T T
  0.2853846207924368  0.2876992885218966  0.4982502940159542 T T T
  0.2835355840987735  0.4283588018503080  0.4966783157853241 T T T
  0.2858511954172323  0.5712633228687065  0.4987228982897708 T T T
  0.2855710250389009  0.7155010392317150  0.5020716338315724 T T T
  0.2855591718234005  0.8584362663374759  0.5034771516586266 T T T
  0.4285098369500778  0.0012891828251366  0.5034353806241511 T T T
  0.4282791437504718  0.1436288360294725  0.5031499549141265 T T T
  0.4266189835123989  0.2832883662840375  0.5021797504199224 T T T
  0.4266892909357142  0.7174129252519436  0.4987550502486952 T T T
  0.4281334106036849  0.8586543969473047  0.5021247749045233 T T T
  0.5711389800997746  0.0016518528656966  0.5013343204986925 T T T
  0.5712416550974295  0.1438239643356542  0.5021941754101683 T T T
  0.5721758871969059  0.2870486154471610  0.5028827469307232 T T T
  0.5717481460186952  0.8595926081524784  0.4988971398145807 T T T
  0.7140078938220368  0.0009762438694986  0.4986058207278574 T T T
  0.7141613134528700  0.1438015966016556  0.5004028575676410 T T T
  0.7142730943965109  0.2865114168685767  0.5006844414916393 T T T
  0.7139352189902415  0.4284479243249735  0.4990476042466424 T T T
  0.7181376035143754  0.5735200674190561  0.4898092453185723 T T T
  0.7200805164680824  0.7161831412520645  0.4894372287377748 T T T
  0.7126580486174937  0.8578449375319801  0.4952304173504642 T T T
  0.8566465855818389  0.0006058300145746  0.4968716202804850 T T T
  0.8566138157143216  0.1434782621059140  0.4987818456753356 T T T
  0.8568030132819123  0.2862974195148784  0.4998165715162376 T T T
  0.8573687509596816  0.4292897056866922  0.4997679524810474 T T T
  0.8581839861671158  0.5725897270136489  0.4982846129548606 T T T
  0.8596997026970136  0.7159522954908157  0.4951375384445378 T T T
  0.8569812474331149  0.8573655426579480  0.4951405805717140 T T T
  0.0470757747453712  0.0958047750576300  0.4983437974470749 T T T
  0.0463802092944787  0.2382353900837335  0.4984419583189623 T T T
  0.0466197174750865  0.3813827989795249  0.4997748052354490 T T T
  0.0477333339684570  0.5245983399763663  0.5015265388951450 T T T
  0.0481876754209113  0.6676967687105299  0.5021006286138100 T T T
  0.0481268479935360  0.8107057880290571  0.5006689012328217 T T T
  0.0476546317987460  0.9533860748966972  0.4991347468901468 T T T
  0.1901576548247613  0.0960218438840843  0.4999892374901541 T T T
  0.1895784754588337  0.2387476906384797  0.4983759552749479 T T T
  0.1882680239300315  0.3807294162349152  0.4980524632431141 T T T
  0.1900391444466065  0.5242696741130491  0.4999822324902762 T T T
  0.1904789641839908  0.6676522122471840  0.5025590546995257 T T T
  0.1906564327429352  0.8107140225990808  0.5031545355122808 T T T
  0.1905723570169242  0.9534799798426046  0.5019119066389540 T T T
  0.3331710564289659  0.0962802317529167  0.5025117839380193 T T T
  0.3336637371342267  0.2387544398318922  0.5004181096375087 T T T
  0.3296681945978029  0.3804860873374863  0.4964432051596390 T T T
  0.3297947526993226  0.5224325617090274  0.4966718191007286 T T T
  0.3338887786533754  0.6686014262856524  0.4998972207216517 T T T
  0.3331097692086729  0.8106676353374502  0.5028799080923092 T T T
  0.3331051280806588  0.9534878953741156  0.5035241269656220 T T T
  0.4760844847867371  0.0962224475925175  0.5031038152532734 T T T
  0.4753434005966292  0.2387055614761774  0.5032225891709002 T T T
  0.4751319112145784  0.8107474715086369  0.5000931360183525 T T T
  0.4760085862234684  0.9539088564875255  0.5025921590513998 T T T
  0.6187608550732403  0.0964576808905616  0.5013514821157922 T T T
  0.6191704968921817  0.2389991076520938  0.5017194853433179 T T T
  0.6210039691284186  0.3803362938681547  0.5025355028535707 T T T
  0.6197248132553236  0.8145589366147861  0.4967091235017641 T T T
  0.6189169212726059  0.9543007253029356  0.4996453191931965 T T T
  0.7616876827964275  0.0962601917567531  0.4993800140254844 T T T
  0.7618328265075124  0.2387519702449844  0.5003668715969315 T T T
  0.7621456700429243  0.3815629707314807  0.4995563490637915 T T T
  0.7625525363891177  0.5254849592557972  0.4957123094269816 T T T
  0.7648277804959731  0.6673081914467467  0.4907994060872305 T T T
  0.7606076564279804  0.8087480212515671  0.4929002948111568 T T T
  0.7614901600473212  0.9532761072529222  0.4968080696136503 T T T
  0.9040347774981260  0.0955225530217672  0.4979173980686397 T T T
  0.9041304034909140  0.2385908325499860  0.4992161454995875 T T T
  0.9045109657699768  0.3816931464762624  0.5001221348675520 T T T
  0.9052949205301076  0.5247836079364662  0.5002889799145065 T T T
  0.9061468225145084  0.6677326984376937  0.4979124046553715 T T T
  0.9055472393512832  0.8107512311732797  0.4962145557885875 T T T
  0.9041840400140768  0.9525632706522996  0.4966837932144142 T T T
  0.4626702309212828  0.3557863742536196  0.5029822782905224 T T T
  0.4022975185004420  0.4195875279677801  0.4967887056312374 T T T
  0.4024752095734629  0.5556734843501289  0.4954314060921267 T T T
  0.6458603341728802  0.5392720171361673  0.4850656813993003 T T T
  0.5852177944852468  0.4169426940161408  0.5065526595236884 T T T
  0.5827906053843708  0.7426938255730675  0.4958920525621125 T T T
  0.4627852166348880  0.6810486612553867  0.4963517824343311 T T T
  0.5611513938499821  0.5671159474958143  0.6015119609849364 T T T
  0.4919011797858610  0.4896830578820724  0.6604094739063655 T T T
  0.6281356677714726  0.6628241151731769  0.4864414599374398 T T T
  0.5246670764379252  0.5023359656469008  0.6046639079999991 T T F
