C    N    H    O                        
   1.00000000000000     
    17.2710380553999983    0.0000000000000000    0.0000000000000000
    -8.6355190276999991   14.9571577057000002    0.0000000000000000
     0.0000000000000000    0.0000000000000000   15.0000000000000000
  C/253f7b50bb8d  N/e053789ff3a6  H/030f79b5d3ab  O/818f92134a0a
              80               8               2               1
Selective dynamics
Direct
  0.0005558681971836  1.0000896140358364  0.4983080209791279   T   T   T
  0.9997720423002365  0.1424108915459635  0.4985571738196036   T   T   T
  0.9995415406405387  0.2854563431440879  0.4987290257114374   T   T   T
  0.9998014701583267  0.4287001079005353  0.4985970810452688   T   T   T
  0.0006255433096996  0.5718024537311538  0.4985764945193094   T   T   T
  0.0020156446947694  0.7151003189658020  0.4986376898596352   T   T   T
  0.0020197645781530  0.8582584812954950  0.4985442968317854   T   T   T
  0.1449170653377986  0.0018696549129477  0.4989850339074798   T   T   T
  0.1442716571568641  0.1444594872758816  0.4987848448415488   T   T   T
  0.1426744910359059  0.2856396606772404  0.4986982681537219   T   T   T
  0.1427048566079603  0.4283883478290697  0.4986681282021270   T   T   T
  0.1444180182632259  0.5711580940434455  0.4987537353547051   T   T   T
  0.1449227491296613  0.7143792621338502  0.4992264133518426   T   T   T
  0.1449100385702247  0.8581282604888950  0.4992980171879614   T   T   T
  0.2874858718545387  0.0014041514264967  0.4983667102391115   T   T   T
  0.2881392643918800  0.1462084072312663  0.4976717534317120   T   T   T
  0.2890524344495941  0.2934733044286631  0.4964113702579542   T   T   T
  0.2854180890613779  0.4282578254652467  0.4963560023639019   T   T   T
  0.2893450631245873  0.5669557454596763  0.4972769914164364   T   T   T
  0.2881344806350201  0.7133167744931178  0.4981816577099451   T   T   T
  0.2874770517054435  0.8574807571414541  0.4985695382494023   T   T   T
  0.4300448234809262  0.0007377309669356  0.4970545061092104   T   T   T
  0.4301051939976927  0.1455737653728444  0.4966936783677354   T   T   T
  0.4300922071159866  0.8559616433082216  0.4968336582791911   T   T   T
  0.5719195203375262  0.9994571256411786  0.4959653735908951   T   T   T
  0.5719351400194806  0.1439058256991596  0.4961054561561037   T   T   T
  0.5741758232758869  0.2915844767720155  0.4952601388644818   T   T   T
  0.5742269644776354  0.8540538471080389  0.4950729012084406   T   T   T
  0.7140230650687718  0.9983473877289788  0.4958810237137609   T   T   T
  0.7143414455466790  0.1428644706784407  0.4964572067778299   T   T   T
  0.7140065432853728  0.2870790736027788  0.4961868011254807   T   T   T
  0.7096414111978627  0.4280610034505600  0.4945634639229992   T   T   T
  0.7096171561188819  0.8529752772280556  0.4942822948458311   T   T   T
  0.8566027432201307  0.9986039648099996  0.4968186250512306   T   T   T
  0.8566478696024521  0.1422126819685393  0.4974500294333029   T   T   T
  0.8566477942055164  0.2858079117383260  0.4975989651662727   T   T   T
  0.8566111022057407  0.4293502168064656  0.4970883922928513   T   T   T
  0.8570303723797934  0.5725157410798200  0.4966069109843788   T   T   T
  0.8593164655066245  0.7153022315985004  0.4962630921084726   T   T   T
  0.8569957064042322  0.8558013021953016  0.4962254170458410   T   T   T
  0.0484645836802890  0.0957097218072800  0.4987039079884492   T   T   T
  0.0469929545162852  0.2375702180946474  0.4988969149945418   T   T   T
  0.0470025315182953  0.3807716614620412  0.4988726668565085   T   T   T
  0.0485678555649591  0.5241024622156549  0.4987692248427634   T   T   T
  0.0492520551187781  0.6672055453740076  0.4989987327564993   T   T   T
  0.0494953004228617  0.8104187939769346  0.4990430226646713   T   T   T
  0.0492583988613715  0.9533875689148248  0.4987931577750760   T   T   T
  0.1924696363660376  0.0972656456901877  0.4985989833907858   T   T   T
  0.1920621995128078  0.2400027844652375  0.4983823884453182   T   T   T
  0.1895819406290480  0.3804624151758562  0.4982614198374941   T   T   T
  0.1922576842884695  0.5233986721248339  0.4983183730364756   T   T   T
  0.1924764079849347  0.6665404326501322  0.4988391463867781   T   T   T
  0.1924048529241786  0.8100798813323592  0.4992108944587018   T   T   T
  0.1924029369463022  0.9536697890679150  0.4989937479598963   T   T   T
  0.3350519034182891  0.0976382507577423  0.4976027289897083   T   T   T
  0.3393942151088877  0.2429468326657326  0.4963563649301114   T   T   T
  0.3394484119063279  0.6678741996382502  0.4972630586544076   T   T   T
  0.3350360960556226  0.8088163768915930  0.4979585740255593   T   T   T
  0.3347055583455527  0.9530757615764347  0.4980525362379639   T   T   T
  0.4771266823317787  0.0965147328744760  0.4965969214793209   T   T   T
  0.4749133281271413  0.2419789452878988  0.4958173059709388   T   T   T
  0.4749219930584433  0.8043715509424841  0.4959954318391738   T   T   T
  0.4771041398463571  0.9520405177677854  0.4965445274034276   T   T   T
  0.6190139728752799  0.0952000258681234  0.4961433920840492   T   T   T
  0.6189749929895181  0.2399830920245728  0.4958342388656004   T   T   T
  0.6189735635520635  0.9504362560761918  0.4955872762302782   T   T   T
  0.7615801571824966  0.0945437433787528  0.4965579814194449   T   T   T
  0.7615702918062697  0.2384251110626255  0.4967571012294894   T   T   T
  0.7608971527592767  0.3825599304293695  0.4959707987880078   T   T   T
  0.7599628984398277  0.5290603045883655  0.4940250961222103   T   T   T
  0.7634150381493219  0.6673902785618737  0.4929612134826452   T   T   T
  0.7599378403390064  0.8021892713393559  0.4938103241329523   T   T   T
  0.7609048368990873  0.9497299766216637  0.4956050896916387   T   T   T
  0.9041188625341949  0.0939899991269572  0.4976870469611581   T   T   T
  0.9041235034922519  0.2377437269863148  0.4980322608408864   T   T   T
  0.9041291731470282  0.3814803171162904  0.4978785377797378   T   T   T
  0.9048021618379942  0.5247482431712922  0.4975785304874702   T   T   T
  0.9063234607088779  0.6674838672972231  0.4972776429526029   T   T   T
  0.9063173496707519  0.8101426053999995  0.4971273034019349   T   T   T
  0.9047509198420383  0.9513529249456665  0.4972372718063798   T   T   T
  0.4292752311964609  0.2868511708713172  0.4955211532021080   T   T   T
  0.4292618495788594  0.7139011917590218  0.4961977720791549   T   T   T
  0.7167909517864666  0.5754546471838055  0.4910623287528805   T   T   T
  0.7167941847645347  0.7126249928224809  0.4912132673062855   T   T   T
  0.3321131298102552  0.3831467236485703  0.4943780553346661   T   T   T
  0.3324599069805969  0.5202328247995281  0.4960938251865061   T   T   T
  0.6197975952003962  0.3820785037944117  0.4944274984838284   T   T   T
  0.6198306129436463  0.8092267218537890  0.4940515959715799   T   T   T
  0.4812329468798932  0.5451191239707356  0.5369207088830930   T   T   T
  0.5194795539874509  0.4816241458321581  0.5339830206497000   T   T   T
  0.5196559110970063  0.5287604493536305  0.5697759390000030   T   T   F
 
  0.00000000E+00  0.00000000E+00  0.00000000E+00
  0.00000000E+00  0.00000000E+00  0.00000000E+00
  0.00000000E+00  0.00000000E+00  0.00000000E+00
  0.00000000E+00  0.00000000E+00  0.00000000E+00
  0.00000000E+00  0.00000000E+00  0.00000000E+00
  0.00000000E+00  0.00000000E+00  0.00000000E+00
  0.00000000E+00  0.00000000E+00  0.00000000E+00
  0.00000000E+00  0.00000000E+00  0.00000000E+00
  0.00000000E+00  0.00000000E+00  0.00000000E+00
  0.00000000E+00  0.00000000E+00  0.00000000E+00
  0.00000000E+00  0.00000000E+00  0.00000000E+00
  0.00000000E+00  0.00000000E+00  0.00000000E+00
  0.00000000E+00  0.00000000E+00  0.00000000E+00
  0.00000000E+00  0.00000000E+00  0.00000000E+00
  0.00000000E+00  0.00000000E+00  0.00000000E+00
  0.00000000E+00  0.00000000E+00  0.00000000E+00
  0.00000000E+00  0.00000000E+00  0.00000000E+00
  0.00000000E+00  0.00000000E+00  0.00000000E+00
  0.00000000E+00  0.00000000E+00  0.00000000E+00
  0.00000000E+00  0.00000000E+00  0.00000000E+00
  0.00000000E+00  0.00000000E+00  0.00000000E+00
  0.00000000E+00  0.00000000E+00  0.00000000E+00
  0.00000000E+00  0.00000000E+00  0.00000000E+00
  0.00000000E+00  0.00000000E+00  0.00000000E+00
  0.00000000E+00  0.00000000E+00  0.00000000E+00
  0.00000000E+00  0.00000000E+00  0.00000000E+00
  0.00000000E+00  0.00000000E+00  0.00000000E+00
  0.00000000E+00  0.00000000E+00  0.00000000E+00
  0.00000000E+00  0.00000000E+00  0.00000000E+00
  0.00000000E+00  0.00000000E+00  0.00000000E+00
  0.00000000E+00  0.00000000E+00  0.00000000E+00
  0.00000000E+00  0.00000000E+00  0.00000000E+00
  0.00000000E+00  0.00000000E+00  0.00000000E+00
  0.00000000E+00  0.00000000E+00  0.00000000E+00
  0.00000000E+00  0.00000000E+00  0.00000000E+00
  0.00000000E+00  0.00000000E+00  0.00000000E+00
  0.00000000E+00  0.00000000E+00  0.00000000E+00
  0.00000000E+00  0.00000000E+00  0.00000000E+00
  0.00000000E+00  0.00000000E+00  0.00000000E+00
  0.00000000E+00  0.00000000E+00  0.00000000E+00
  0.00000000E+00  0.00000000E+00  0.00000000E+00
  0.00000000E+00  0.00000000E+00  0.00000000E+00
  0.00000000E+00  0.00000000E+00  0.00000000E+00
  0.00000000E+00  0.00000000E+00  0.00000000E+00
  0.00000000E+00  0.00000000E+00  0.00000000E+00
  0.00000000E+00  0.00000000E+00  0.00000000E+00
  0.00000000E+00  0.00000000E+00  0.00000000E+00
  0.00000000E+00  0.00000000E+00  0.00000000E+00
  0.00000000E+00  0.00000000E+00  0.00000000E+00
  0.00000000E+00  0.00000000E+00  0.00000000E+00
  0.00000000E+00  0.00000000E+00  0.00000000E+00
  0.00000000E+00  0.00000000E+00  0.00000000E+00
  0.00000000E+00  0.00000000E+00  0.00000000E+00
  0.00000000E+00  0.00000000E+00  0.00000000E+00
  0.00000000E+00  0.00000000E+00  0.00000000E+00
  0.00000000E+00  0.00000000E+00  0.00000000E+00
  0.00000000E+00  0.00000000E+00  0.00000000E+00
  0.00000000E+00  0.00000000E+00  0.00000000E+00
  0.00000000E+00  0.00000000E+00  0.00000000E+00
  0.00000000E+00  0.00000000E+00  0.00000000E+00
  0.00000000E+00  0.00000000E+00  0.00000000E+00
  0.00000000E+00  0.00000000E+00  0.00000000E+00
  0.00000000E+00  0.00000000E+00  0.00000000E+00
  0.00000000E+00  0.00000000E+00  0.00000000E+00
  0.00000000E+00  0.00000000E+00  0.00000000E+00
  0.00000000E+00  0.00000000E+00  0.00000000E+00
  0.00000000E+00  0.00000000E+00  0.00000000E+00
  0.00000000E+00  0.00000000E+00  0.00000000E+00
  0.00000000E+00  0.00000000E+00  0.00000000E+00
  0.00000000E+00  0.00000000E+00  0.00000000E+00
  0.00000000E+00  0.00000000E+00  0.00000000E+00
  0.00000000E+00  0.00000000E+00  0.00000000E+00
  0.00000000E+00  0.00000000E+00  0.00000000E+00
  0.00000000E+00  0.00000000E+00  0.00000000E+00
  0.00000000E+00  0.00000000E+00  0.00000000E+00
  0.00000000E+00  0.00000000E+00  0.00000000E+00
  0.00000000E+00  0.00000000E+00  0.00000000E+00
  0.00000000E+00  0.00000000E+00  0.00000000E+00
  0.00000000E+00  0.00000000E+00  0.00000000E+00
  0.00000000E+00  0.00000000E+00  0.00000000E+00
  0.00000000E+00  0.00000000E+00  0.00000000E+00
  0.00000000E+00  0.00000000E+00  0.00000000E+00
  0.00000000E+00  0.00000000E+00  0.00000000E+00
  0.00000000E+00  0.00000000E+00  0.00000000E+00
  0.00000000E+00  0.00000000E+00  0.00000000E+00
  0.00000000E+00  0.00000000E+00  0.00000000E+00
  0.00000000E+00  0.00000000E+00  0.00000000E+00
  0.00000000E+00  0.00000000E+00  0.00000000E+00
  0.00000000E+00  0.00000000E+00  0.00000000E+00
  0.00000000E+00  0.00000000E+00  0.00000000E+00
  0.00000000E+00  0.00000000E+00  0.00000000E+00
