C4                                      
    1.000000000000000     
    17.2710380553999983    0.0000000000000000    0.0000000000000000
    -8.6355190276999991   14.9571577057000002    0.0000000000000000
     0.0000000000000000    0.0000000000000000   15.0000000000000000
   C    H    N 
    86     6     2
Direct
 -0.0001392760501957 -0.0005612262628635  0.2500000209951897
 -0.0008815799637485  0.1420676352369841  0.2500000255634217
 -0.0012353495778799  0.2850620669515783  0.2500000124229020
 -0.0009320937284322  0.4283795606841041  0.2500000058586496
 -0.0001885870353848  0.5716826219989338  0.2500000205620393
  0.0016192193044215  0.7152269035120314  0.2500000201374165
  0.0016005343285601  0.8576863754308387  0.2500000147987000
  0.1435106254325566  0.0003865851770925  0.2500000097875588
  0.1423821306512971  0.1426714032242549  0.2500000172724703
  0.1412107751996368  0.2847073627383426  0.2500000259004833
  0.1412569646973916  0.4278346882299375  0.2500000209636987
  0.1423897280762222  0.5710540909912447  0.2500000138947893
  0.1434949335590125  0.7144326910194444  0.2500000002481827
  0.1441427936147222  0.8577194412401727  0.2500000039684588
  0.2863403659381227  0.0002130125926811  0.2500000056580644
  0.2857400272881341  0.1427951130853430  0.2500000047977391
  0.2851723723839508  0.2867433267418854  0.2500000006224800
  0.2830126305146629  0.4272057125708114  0.2500000005222588
  0.2852882159696206  0.5699300547745459  0.2499999809087053
  0.2857203044701128  0.7143936939040315  0.2499999761219289
  0.2863315059046382  0.8575260564622494  0.2499999875216165
  0.4293373219049879  0.0004028572969984  0.2500000123328555
  0.4290130306345269  0.1432748697892300  0.2500000085749875
  0.4266029886113410  0.2826209119774886  0.2499999934861208
  0.4266676481567182  0.7155199440896135  0.2499999696499363
  0.4289245876873947  0.8571273460615551  0.2499999913276787
  0.5718287081570735 -0.0000805222267557  0.2500000064899970
  0.5719196512168662  0.1435212675977491  0.2500000158805998
  0.5726574564797731  0.2881210853723435  0.2499999960013443
  0.5727108389120812  0.8561137920335131  0.2499999805656067
  0.7143904108473905 -0.0014159409158830  0.2499999976618345
  0.7143880198876444  0.1429677265554561  0.2500000054695992
  0.7143565163780539  0.2873609541072529  0.2499999999531485
  0.7138537711558880  0.4314043928879126  0.2499999791449503
  0.7139386800270747  0.8539949490288171  0.2499999924922633
  0.8568587464725165 -0.0010445909449286  0.2500000191943433
  0.8565527415956551  0.1422430714016968  0.2500000101421269
  0.8564500941773395  0.2857100177518687  0.2499999964577096
  0.8568047529582411  0.4293665816471813  0.2499999855427509
  0.8577334750046874  0.5733959457149607  0.2499999642975997
  0.8591630216900528  0.7153606977341275  0.2499999841317903
  0.8577864425578953  0.8558982513943143  0.2500000126752471
  0.0472156857461173  0.0947891699464846  0.2500000235223660
  0.0459821976009492  0.2370325435878719  0.2500000252454199
  0.0459971803337020  0.3802818016215097  0.2500000124283997
  0.0472003556011303  0.5237386372612419  0.2500000179945506
  0.0482983279523995  0.6670284539834842  0.2500000214782718
  0.0491099139849284  0.8101945075736747  0.2500000175601226
  0.0483163149146139  0.9525391264638635  0.2500000152373322
  0.1904595530903805  0.0951800212002439  0.2500000100276296
  0.1893783761835316  0.2377630323979699  0.2500000160433755
  0.1877429615258952  0.3795083592355148  0.2500000214243894
  0.1894451119504214  0.5230012820048601  0.2500000080325860
  0.1904621408532486  0.6666334267275719  0.2499999965038117
  0.1913887594016520  0.8099119701735228  0.2499999900087024
  0.1913896977885609  0.9527740053946671  0.2500000040887746
  0.3338347159050291  0.0956527942684385  0.2500000071610976
  0.3337122563724676  0.2380277418299932  0.2499999970456737
  0.3292995932981713  0.3794917180425801  0.2499999924843121
  0.3293392114568752  0.5212045328746090  0.2499999815073475
  0.3337806322107816  0.6672328438091014  0.2499999694888140
  0.3337797193800082  0.8095931839556046  0.2499999828082219
  0.3338908742078781  0.9526333717730022  0.2500000021465225
  0.4768074682030082  0.0956351846092186  0.2500000162854884
  0.4758194437083478  0.2385807517375305  0.2500000006030457
  0.4758453022666330  0.8087523053401721  0.2499999795499749
  0.4766935312658733  0.9525748911294019  0.2500000064083749
  0.6190780897495933  0.0953151281106765  0.2500000119075952
  0.6193505910390368  0.2393747495537779  0.2500000084765737
  0.6209405877057597  0.3821031506876076  0.2499999821315388
  0.6210070825016231  0.8104088319169760  0.2499999747051885
  0.6193691076751757  0.9515624594219625  0.2499999920304804
  0.7616357208147765  0.0946155721407310  0.2500000065913162
  0.7615419655913214  0.2385286192033543  0.2499999980137214
  0.7617343279205014  0.3831078897426683  0.2499999824246565
  0.7619392514826231  0.5303136941721507  0.2499999681380816
  0.7632407340861528  0.6673861910245604  0.2499999906666283
  0.7620420433557811  0.8032352480904852  0.2500000056578199
  0.7617836989195746  0.9502066223163160  0.2500000062942009
  0.9039639139546222  0.0941077774150357  0.2500000200655915
  0.9037041289004569  0.2375803070102621  0.2500000045038664
  0.9039001252036373  0.3812525910338525  0.2499999951924924
  0.9044909455561498  0.5246988962988552  0.2499999891505224
  0.9064633248486015  0.6680492030635241  0.2499999854062477
  0.9064850219429463  0.8099693713616477  0.2500000062747846
  0.9045720383487368  0.9512964640454774  0.2500000210733335
  0.4628915037930146  0.3551146331226986  0.2499999819516633
  0.4020219849042362  0.4186607106779697  0.2499999761832019
  0.4020593134896180  0.5546528024404128  0.2499999680554760
  0.5870392904640691  0.4208923110938328  0.2499999744681615
  0.5871151643325963  0.7377061498641413  0.2499999682104129
  0.4629034344624529  0.6792547733735770  0.2499999752897240
  0.7169952844024129  0.5756483301805337  0.2499999922254622
  0.7170534255249026  0.7129283729977328  0.2500000098274090
 
  0.00000000E+00  0.00000000E+00  0.00000000E+00
  0.00000000E+00  0.00000000E+00  0.00000000E+00
  0.00000000E+00  0.00000000E+00  0.00000000E+00
  0.00000000E+00  0.00000000E+00  0.00000000E+00
  0.00000000E+00  0.00000000E+00  0.00000000E+00
  0.00000000E+00  0.00000000E+00  0.00000000E+00
  0.00000000E+00  0.00000000E+00  0.00000000E+00
  0.00000000E+00  0.00000000E+00  0.00000000E+00
  0.00000000E+00  0.00000000E+00  0.00000000E+00
  0.00000000E+00  0.00000000E+00  0.00000000E+00
  0.00000000E+00  0.00000000E+00  0.00000000E+00
  0.00000000E+00  0.00000000E+00  0.00000000E+00
  0.00000000E+00  0.00000000E+00  0.00000000E+00
  0.00000000E+00  0.00000000E+00  0.00000000E+00
  0.00000000E+00  0.00000000E+00  0.00000000E+00
  0.00000000E+00  0.00000000E+00  0.00000000E+00
  0.00000000E+00  0.00000000E+00  0.00000000E+00
  0.00000000E+00  0.00000000E+00  0.00000000E+00
  0.00000000E+00  0.00000000E+00  0.00000000E+00
  0.00000000E+00  0.00000000E+00  0.00000000E+00
  0.00000000E+00  0.00000000E+00  0.00000000E+00
  0.00000000E+00  0.00000000E+00  0.00000000E+00
  0.00000000E+00  0.00000000E+00  0.00000000E+00
  0.00000000E+00  0.00000000E+00  0.00000000E+00
  0.00000000E+00  0.00000000E+00  0.00000000E+00
  0.00000000E+00  0.00000000E+00  0.00000000E+00
  0.00000000E+00  0.00000000E+00  0.00000000E+00
  0.00000000E+00  0.00000000E+00  0.00000000E+00
  0.00000000E+00  0.00000000E+00  0.00000000E+00
  0.00000000E+00  0.00000000E+00  0.00000000E+00
  0.00000000E+00  0.00000000E+00  0.00000000E+00
  0.00000000E+00  0.00000000E+00  0.00000000E+00
  0.00000000E+00  0.00000000E+00  0.00000000E+00
  0.00000000E+00  0.00000000E+00  0.00000000E+00
  0.00000000E+00  0.00000000E+00  0.00000000E+00
  0.00000000E+00  0.00000000E+00  0.00000000E+00
  0.00000000E+00  0.00000000E+00  0.00000000E+00
  0.00000000E+00  0.00000000E+00  0.00000000E+00
  0.00000000E+00  0.00000000E+00  0.00000000E+00
  0.00000000E+00  0.00000000E+00  0.00000000E+00
  0.00000000E+00  0.00000000E+00  0.00000000E+00
  0.00000000E+00  0.00000000E+00  0.00000000E+00
  0.00000000E+00  0.00000000E+00  0.00000000E+00
  0.00000000E+00  0.00000000E+00  0.00000000E+00
  0.00000000E+00  0.00000000E+00  0.00000000E+00
  0.00000000E+00  0.00000000E+00  0.00000000E+00
  0.00000000E+00  0.00000000E+00  0.00000000E+00
  0.00000000E+00  0.00000000E+00  0.00000000E+00
  0.00000000E+00  0.00000000E+00  0.00000000E+00
  0.00000000E+00  0.00000000E+00  0.00000000E+00
  0.00000000E+00  0.00000000E+00  0.00000000E+00
  0.00000000E+00  0.00000000E+00  0.00000000E+00
  0.00000000E+00  0.00000000E+00  0.00000000E+00
  0.00000000E+00  0.00000000E+00  0.00000000E+00
  0.00000000E+00  0.00000000E+00  0.00000000E+00
  0.00000000E+00  0.00000000E+00  0.00000000E+00
  0.00000000E+00  0.00000000E+00  0.00000000E+00
  0.00000000E+00  0.00000000E+00  0.00000000E+00
  0.00000000E+00  0.00000000E+00  0.00000000E+00
  0.00000000E+00  0.00000000E+00  0.00000000E+00
  0.00000000E+00  0.00000000E+00  0.00000000E+00
  0.00000000E+00  0.00000000E+00  0.00000000E+00
  0.00000000E+00  0.00000000E+00  0.00000000E+00
  0.00000000E+00  0.00000000E+00  0.00000000E+00
  0.00000000E+00  0.00000000E+00  0.00000000E+00
  0.00000000E+00  0.00000000E+00  0.00000000E+00
  0.00000000E+00  0.00000000E+00  0.00000000E+00
  0.00000000E+00  0.00000000E+00  0.00000000E+00
  0.00000000E+00  0.00000000E+00  0.00000000E+00
  0.00000000E+00  0.00000000E+00  0.00000000E+00
  0.00000000E+00  0.00000000E+00  0.00000000E+00
  0.00000000E+00  0.00000000E+00  0.00000000E+00
  0.00000000E+00  0.00000000E+00  0.00000000E+00
  0.00000000E+00  0.00000000E+00  0.00000000E+00
  0.00000000E+00  0.00000000E+00  0.00000000E+00
  0.00000000E+00  0.00000000E+00  0.00000000E+00
  0.00000000E+00  0.00000000E+00  0.00000000E+00
  0.00000000E+00  0.00000000E+00  0.00000000E+00
  0.00000000E+00  0.00000000E+00  0.00000000E+00
  0.00000000E+00  0.00000000E+00  0.00000000E+00
  0.00000000E+00  0.00000000E+00  0.00000000E+00
  0.00000000E+00  0.00000000E+00  0.00000000E+00
  0.00000000E+00  0.00000000E+00  0.00000000E+00
  0.00000000E+00  0.00000000E+00  0.00000000E+00
  0.00000000E+00  0.00000000E+00  0.00000000E+00
  0.00000000E+00  0.00000000E+00  0.00000000E+00
  0.00000000E+00  0.00000000E+00  0.00000000E+00
  0.00000000E+00  0.00000000E+00  0.00000000E+00
  0.00000000E+00  0.00000000E+00  0.00000000E+00
  0.00000000E+00  0.00000000E+00  0.00000000E+00
  0.00000000E+00  0.00000000E+00  0.00000000E+00
  0.00000000E+00  0.00000000E+00  0.00000000E+00
  0.00000000E+00  0.00000000E+00  0.00000000E+00
  0.00000000E+00  0.00000000E+00  0.00000000E+00
