C    F    N    H    O                   
    1.000000000000000     
    17.2710380553999983    0.0000000000000000    0.0000000000000000
    -8.6355190276999991   14.9571577057000002    0.0000000000000000
     0.0000000000000000    0.0000000000000000   15.0000000000000000
   C    F    N    H    O 
    86     6     2     2     1
Selective dynamics
Direct
  0.9990329579705821  0.9993616148133684  0.5035883225910147   T   T   T
  0.9984923864375286  0.1419268732121258  0.5054879973256249   T   T   T
  0.9987881511942663  0.2851139951473498  0.5052252332444940   T   T   T
  0.9995432311178458  0.4282893655873838  0.5053416531478437   T   T   T
  0.0001183367831419  0.5714186979184488  0.5012517458587994   T   T   T
  0.0008731542583491  0.7147276060130147  0.4989565028098214   T   T   T
  0.0007080911219514  0.8576796199428969  0.5001924644415514   T   T   T
  0.1424995893636248  0.0002792919727502  0.4928787125893921   T   T   T
  0.1415777480251675  0.1425796410381986  0.4969859425051034   T   T   T
  0.1409545341869936  0.2851919250467421  0.4949717538506204   T   T   T
  0.1419161044733514  0.4286358885667408  0.4936645579563654   T   T   T
  0.1427808336720871  0.5713538515365184  0.4961463589159383   T   T   T
  0.1428677085280129  0.7143045187859191  0.4933586116893199   T   T   T
  0.1429225138120407  0.8574479479104351  0.4921674850420190   T   T   T
  0.2853488531972919  1.0000800505570566  0.4908007828073888   T   T   T
  0.2848307375902400  0.1424893247883875  0.4892476342154365   T   T   T
  0.2835742201346108  0.2857398723788259  0.4839032528950494   T   T   T
  0.2806235376187328  0.4265332075586794  0.4623657815643332   T   T   T
  0.2856247647513853  0.5722491334487596  0.4747647003850781   T   T   T
  0.2853100615351415  0.7147936321806848  0.4893013779503982   T   T   T
  0.2851744937896588  0.8575272078177600  0.4911175210860517   T   T   T
  0.4282579586042068  0.9999374490340238  0.4942869406568923   T   T   T
  0.4280288177239241  0.1428965077875634  0.4940426570040617   T   T   T
  0.4230830436256224  0.2791850099985744  0.5127564890262292   T   T   T
  0.4272381697010699  0.8564176589910614  0.4958998169969254   T   T   T
  0.5703418553384253  0.9987400539983474  0.5023731094857345   T   T   T
  0.5708001778268401  0.1422183186348711  0.5037636106458181   T   T   T
  0.5716508914932019  0.2860420161047138  0.5021071250460382   T   T   T
  0.5683029018189185  0.8540290826892061  0.5124741437932142   T   T   T
  0.7124036479729075  0.9972130848185207  0.5113674725796197   T   T   T
  0.7133706529399363  0.1415329496698163  0.5084570104246738   T   T   T
  0.7139201468946729  0.2852444836135746  0.5104762665571192   T   T   T
  0.7151576256747617  0.4291635299467720  0.5108673376264435   T   T   T
  0.7240082735118346  0.5768913020294165  0.5417936941673415   T   T   T
  0.7125007600761245  0.8536312308803440  0.5262076904109229   T   T   T
  0.8555747867653216  0.9982842694252769  0.5119394344954240   T   T   T
  0.8555901365412080  0.1414246516212406  0.5095588729025006   T   T   T
  0.8563042690642956  0.2849060372695424  0.5102828806648260   T   T   T
  0.8573005229987726  0.4284406110933098  0.5114763666263505   T   T   T
  0.8584468072324103  0.5724983186012131  0.5077361956950298   T   T   T
  0.8597688895856882  0.7156736755236913  0.5132615691639352   T   T   T
  0.8572754800642383  0.8561933765570937  0.5156915807340170   T   T   T
  0.0464900124529468  0.0947015610802061  0.5023612025093880   T   T   T
  0.0458866023831197  0.2372194019069279  0.5027731809948646   T   T   T
  0.0467627344404589  0.3806089978839373  0.5024913180610744   T   T   T
  0.0476139978316086  0.5236128411503039  0.5016522667470933   T   T   T
  0.0478089222106668  0.6667250775104019  0.4971186098154585   T   T   T
  0.0479630593094238  0.8098247504272216  0.4962902784044501   T   T   T
  0.0473681826191096  0.9525182562396712  0.4985142312146511   T   T   T
  0.1895165560755477  0.0951170104610273  0.4914624225767333   T   T   T
  0.1884409151378604  0.2377596561359537  0.4935741040324478   T   T   T
  0.1879532863174048  0.3801183155087836  0.4864773266118149   T   T   T
  0.1905717268013714  0.5241370714029912  0.4904001320930239   T   T   T
  0.1901624829317213  0.6666800287800867  0.4923321747843158   T   T   T
  0.1902901475271555  0.8097169356587561  0.4913911148697215   T   T   T
  0.1902903682012292  0.9525958431872805  0.4910543397309243   T   T   T
  0.3328550555861952  0.0953336812307039  0.4913037104455932   T   T   T
  0.3319322245917464  0.2376537655713423  0.4931570491083175   T   T   T
  0.3236294846757909  0.3751754191649767  0.4571123890415169   T   T   T
  0.3234702489684945  0.5207090982974620  0.4481076948854749   T   T   T
  0.3361321860483439  0.6703210295596626  0.4834494563597591   T   T   T
  0.3325196301008905  0.8096607096070957  0.4916536739356091   T   T   T
  0.3328969317801420  0.9525214531663934  0.4915558779540509   T   T   T
  0.4758891748110576  0.0951548154723712  0.4962779194552646   T   T   T
  0.4752353384682961  0.2380876427588811  0.5013679422686276   T   T   T
  0.4711275997489623  0.8049066370796708  0.5002757297431120   T   T   T
  0.4754337766937847  0.9518468837690471  0.4976105262502708   T   T   T
  0.6180759538040216  0.0941034964976791  0.5050165715159988   T   T   T
  0.6187762706868760  0.2377838086464484  0.5076459618856415   T   T   T
  0.6238506734179438  0.3794242550069422  0.4920331306010031   T   T   T
  0.6185972963285519  0.8119721867348854  0.5314780390835023   T   T   T
  0.6169501100416555  0.9497522109454118  0.5076604137596935   T   T   T
  0.7603628145924103  0.0932184740682677  0.5097237255344962   T   T   T
  0.7611726148849335  0.2370129336565584  0.5099269581442414   T   T   T
  0.7620261594726300  0.3806290076902055  0.5136915477527455   T   T   T
  0.7634516803169895  0.5260570990446182  0.5181950151028506   T   T   T
  0.7663436036809191  0.6714844364861368  0.5317852278544352   T   T   T
  0.7618637913462939  0.8045604469425920  0.5286353066684050   T   T   T
  0.7600603986604486  0.9493261266711852  0.5155896854514671   T   T   T
  0.9030639189714362  0.0935845399865697  0.5089740346161779   T   T   T
  0.9034750061580591  0.2369866482534364  0.5087874850404681   T   T   T
  0.9042942957645470  0.3805348621175036  0.5097946543529992   T   T   T
  0.9050102886449251  0.5239096564335113  0.5057257089168364   T   T   T
  0.9061213606444160  0.6673411470638337  0.5060024784266238   T   T   T
  0.9060268996773938  0.8101701494269997  0.5090797810461811   T   T   T
  0.9038211350325149  0.9512108639508281  0.5104662396100922   T   T   T
  0.4606822538561314  0.3608087406691723  0.5517628323723607   T   T   T
  0.4067258788581575  0.4134533213727343  0.4228764759681063   T   T   T
  0.4011507487339043  0.5608331897374089  0.4049432380138193   T   T   T
  0.6422383573563131  0.5342725199309915  0.5800933387437194   T   T   T
  0.5859302465817506  0.4236367419060478  0.4540921394367293   T   T   T
  0.5726760330039594  0.7270706478285653  0.5588457677852666   T   T   T
  0.4257563381881432  0.7149765198689692  0.4904053971152394   T   T   T
  0.7194987123237138  0.7152709992021319  0.5396422820815610   T   T   T
  0.5835068967975410  0.6177145040777946  0.5240109624488415   T   T   T
  0.5333077393591097  0.5176784743343997  0.4991674429278512   T   T   T
  0.5269406200845476  0.5702565139268898  0.5000000455000091   T   T   F
 
  0.00000000E+00  0.00000000E+00  0.00000000E+00
  0.00000000E+00  0.00000000E+00  0.00000000E+00
  0.00000000E+00  0.00000000E+00  0.00000000E+00
  0.00000000E+00  0.00000000E+00  0.00000000E+00
  0.00000000E+00  0.00000000E+00  0.00000000E+00
  0.00000000E+00  0.00000000E+00  0.00000000E+00
  0.00000000E+00  0.00000000E+00  0.00000000E+00
  0.00000000E+00  0.00000000E+00  0.00000000E+00
  0.00000000E+00  0.00000000E+00  0.00000000E+00
  0.00000000E+00  0.00000000E+00  0.00000000E+00
  0.00000000E+00  0.00000000E+00  0.00000000E+00
  0.00000000E+00  0.00000000E+00  0.00000000E+00
  0.00000000E+00  0.00000000E+00  0.00000000E+00
  0.00000000E+00  0.00000000E+00  0.00000000E+00
  0.00000000E+00  0.00000000E+00  0.00000000E+00
  0.00000000E+00  0.00000000E+00  0.00000000E+00
  0.00000000E+00  0.00000000E+00  0.00000000E+00
  0.00000000E+00  0.00000000E+00  0.00000000E+00
  0.00000000E+00  0.00000000E+00  0.00000000E+00
  0.00000000E+00  0.00000000E+00  0.00000000E+00
  0.00000000E+00  0.00000000E+00  0.00000000E+00
  0.00000000E+00  0.00000000E+00  0.00000000E+00
  0.00000000E+00  0.00000000E+00  0.00000000E+00
  0.00000000E+00  0.00000000E+00  0.00000000E+00
  0.00000000E+00  0.00000000E+00  0.00000000E+00
  0.00000000E+00  0.00000000E+00  0.00000000E+00
  0.00000000E+00  0.00000000E+00  0.00000000E+00
  0.00000000E+00  0.00000000E+00  0.00000000E+00
  0.00000000E+00  0.00000000E+00  0.00000000E+00
  0.00000000E+00  0.00000000E+00  0.00000000E+00
  0.00000000E+00  0.00000000E+00  0.00000000E+00
  0.00000000E+00  0.00000000E+00  0.00000000E+00
  0.00000000E+00  0.00000000E+00  0.00000000E+00
  0.00000000E+00  0.00000000E+00  0.00000000E+00
  0.00000000E+00  0.00000000E+00  0.00000000E+00
  0.00000000E+00  0.00000000E+00  0.00000000E+00
  0.00000000E+00  0.00000000E+00  0.00000000E+00
  0.00000000E+00  0.00000000E+00  0.00000000E+00
  0.00000000E+00  0.00000000E+00  0.00000000E+00
  0.00000000E+00  0.00000000E+00  0.00000000E+00
  0.00000000E+00  0.00000000E+00  0.00000000E+00
  0.00000000E+00  0.00000000E+00  0.00000000E+00
  0.00000000E+00  0.00000000E+00  0.00000000E+00
  0.00000000E+00  0.00000000E+00  0.00000000E+00
  0.00000000E+00  0.00000000E+00  0.00000000E+00
  0.00000000E+00  0.00000000E+00  0.00000000E+00
  0.00000000E+00  0.00000000E+00  0.00000000E+00
  0.00000000E+00  0.00000000E+00  0.00000000E+00
  0.00000000E+00  0.00000000E+00  0.00000000E+00
  0.00000000E+00  0.00000000E+00  0.00000000E+00
  0.00000000E+00  0.00000000E+00  0.00000000E+00
  0.00000000E+00  0.00000000E+00  0.00000000E+00
  0.00000000E+00  0.00000000E+00  0.00000000E+00
  0.00000000E+00  0.00000000E+00  0.00000000E+00
  0.00000000E+00  0.00000000E+00  0.00000000E+00
  0.00000000E+00  0.00000000E+00  0.00000000E+00
  0.00000000E+00  0.00000000E+00  0.00000000E+00
  0.00000000E+00  0.00000000E+00  0.00000000E+00
  0.00000000E+00  0.00000000E+00  0.00000000E+00
  0.00000000E+00  0.00000000E+00  0.00000000E+00
  0.00000000E+00  0.00000000E+00  0.00000000E+00
  0.00000000E+00  0.00000000E+00  0.00000000E+00
  0.00000000E+00  0.00000000E+00  0.00000000E+00
  0.00000000E+00  0.00000000E+00  0.00000000E+00
  0.00000000E+00  0.00000000E+00  0.00000000E+00
  0.00000000E+00  0.00000000E+00  0.00000000E+00
  0.00000000E+00  0.00000000E+00  0.00000000E+00
  0.00000000E+00  0.00000000E+00  0.00000000E+00
  0.00000000E+00  0.00000000E+00  0.00000000E+00
  0.00000000E+00  0.00000000E+00  0.00000000E+00
  0.00000000E+00  0.00000000E+00  0.00000000E+00
  0.00000000E+00  0.00000000E+00  0.00000000E+00
  0.00000000E+00  0.00000000E+00  0.00000000E+00
  0.00000000E+00  0.00000000E+00  0.00000000E+00
  0.00000000E+00  0.00000000E+00  0.00000000E+00
  0.00000000E+00  0.00000000E+00  0.00000000E+00
  0.00000000E+00  0.00000000E+00  0.00000000E+00
  0.00000000E+00  0.00000000E+00  0.00000000E+00
  0.00000000E+00  0.00000000E+00  0.00000000E+00
  0.00000000E+00  0.00000000E+00  0.00000000E+00
  0.00000000E+00  0.00000000E+00  0.00000000E+00
  0.00000000E+00  0.00000000E+00  0.00000000E+00
  0.00000000E+00  0.00000000E+00  0.00000000E+00
  0.00000000E+00  0.00000000E+00  0.00000000E+00
  0.00000000E+00  0.00000000E+00  0.00000000E+00
  0.00000000E+00  0.00000000E+00  0.00000000E+00
  0.00000000E+00  0.00000000E+00  0.00000000E+00
  0.00000000E+00  0.00000000E+00  0.00000000E+00
  0.00000000E+00  0.00000000E+00  0.00000000E+00
  0.00000000E+00  0.00000000E+00  0.00000000E+00
  0.00000000E+00  0.00000000E+00  0.00000000E+00
  0.00000000E+00  0.00000000E+00  0.00000000E+00
  0.00000000E+00  0.00000000E+00  0.00000000E+00
  0.00000000E+00  0.00000000E+00  0.00000000E+00
  0.00000000E+00  0.00000000E+00  0.00000000E+00
  0.00000000E+00  0.00000000E+00  0.00000000E+00
  0.00000000E+00  0.00000000E+00  0.00000000E+00
