C    F    N    H    O                   
    1.000000000000000     
    17.2710380553999983    0.0000000000000000    0.0000000000000000
    -8.6355190276999991   14.9571577057000002    0.0000000000000000
     0.0000000000000000    0.0000000000000000   15.0000000000000000
   C    F    N    H    O 
    86     6     2     2     1
Selective dynamics
Direct
 -0.0009703717819140  0.9993243811359847  0.5032368865110725   T   T   T
  0.9984906020670907  0.1418698920679534  0.5055339783427253   T   T   T
  0.9987607489231978  0.2850436420081864  0.5055528122016963   T   T   T
  0.9994632059401620  0.4282113570554286  0.5053895893970966   T   T   T
  1.0000194803972560  0.5713415234572374  0.5009398138944218   T   T   T
  0.0007971078034442  0.7146598218332443  0.4985078308498768   T   T   T
  0.0006748404515877  0.8576284793009320  0.4997017784717497   T   T   T
  0.1424878234169551  0.0002159861542790  0.4929546162493218   T   T   T
  0.1415980838940800  0.1425373626328607  0.4973105684286464   T   T   T
  0.1409607415451272  0.2851280347106707  0.4958436962936893   T   T   T
  0.1418711061395612  0.4285676686061902  0.4946302033250911   T   T   T
  0.1426777965544070  0.5712922745947474  0.4965975283452555   T   T   T
  0.1428034494330528  0.7142506109750334  0.4933794571694433   T   T   T
  0.1428699524813426  0.8573751606702757  0.4921076609763592   T   T   T
  0.2852957663656449  0.9999762332950547  0.4911813818106757   T   T   T
  0.2848140034119592  0.1424127803009989  0.4899656606005197   T   T   T
  0.2836554432188381  0.2857347848440855  0.4849784646210070   T   T   T
  0.2806707888159066  0.4265112938811384  0.4639582698842688   T   T   T
  0.2855537372085963  0.5721898758634578  0.4760473868184169   T   T   T
  0.2852520014906345  0.7147509398302678  0.4897985686975979   T   T   T
  0.2851204251569023  0.8574554919191173  0.4912807631105162   T   T   T
  0.4282122878272429  0.9998520140689039  0.4943628561623796   T   T   T
  0.4279603386056394  0.1427542402046076  0.4945061267195326   T   T   T
  0.4231024590351158  0.2790166562587169  0.5135972276475735   T   T   T
  0.4271889193799051  0.8563646946883013  0.4960022915165788   T   T   T
  0.5703179330012819  0.9987003836110909  0.5020616340317606   T   T   T
  0.5707661013326178  0.1421381175123152  0.5037328760145845   T   T   T
  0.5715941960964046  0.2859119934700507  0.5021762556151484   T   T   T
  0.5682957727242739  0.8540638993070253  0.5124767472952082   T   T   T
  0.7123991981931209  0.9972145493856993  0.5107766259233832   T   T   T
  0.7133589344010882  0.1415042572944420  0.5080528893186649   T   T   T
  0.7138864784999571  0.2851904584824944  0.5101440823983884   T   T   T
  0.7150412285606136  0.4291041382476567  0.5101682170145212   T   T   T
  0.7238954591020691  0.5768500345538702  0.5407894523658332   T   T   T
  0.7125317356894855  0.8537031207266944  0.5257737426553978   T   T   T
  0.8555682754758575  0.9982609624263100  0.5113012512584457   T   T   T
  0.8555819261695424  0.1413852116005741  0.5092232228265158   T   T   T
  0.8562605391031403  0.2848384613662874  0.5099662697946943   T   T   T
  0.8572107957798858  0.4283748248458178  0.5109416236804771   T   T   T
  0.8583422578371798  0.5724413516774765  0.5069295639741522   T   T   T
  0.8596794510330982  0.7156348239157030  0.5124698815021932   T   T   T
  0.8572580612577869  0.8561804850956508  0.5149646602291089   T   T   T
  0.0464919414707035  0.0946671323777545  0.5023509719622189   T   T   T
  0.0458685273016920  0.2371564299152574  0.5032249792399197   T   T   T
  0.0467018522202888  0.3805292638867535  0.5029488336162977   T   T   T
  0.0475166212815629  0.5235326919050496  0.5016970805931780   T   T   T
  0.0477400523819242  0.6666364023292518  0.4968565453129815   T   T   T
  0.0479103289436852  0.8097373308032255  0.4959543975840168   T   T   T
  0.0473426447403694  0.9524718583035082  0.4982211935583918   T   T   T
  0.1895109883870926  0.0950543461242592  0.4918567448135683   T   T   T
  0.1884631135093971  0.2377182350282958  0.4942722947919512   T   T   T
  0.1879315387569230  0.3800650374670751  0.4877257672595495   T   T   T
  0.1904744190179941  0.5240651706730097  0.4913556318392281   T   T   T
  0.1900902445672255  0.6666101364267873  0.4926602021919946   T   T   T
  0.1902397485511810  0.8096347669201941  0.4914433133419613   T   T   T
  0.1902562638364709  0.9525101047390245  0.4912092746117623   T   T   T
  0.3328082290811514  0.0952144971650843  0.4918879991387577   T   T   T
  0.3319467705492743  0.2375723710526796  0.4941070598015215   T   T   T
  0.3237516031011379  0.3752612875721626  0.4585551314970309   T   T   T
  0.3234807446291810  0.5206645131247174  0.4497139860681059   T   T   T
  0.3360625202553751  0.6702595109389455  0.4843074208499160   T   T   T
  0.3324721651050732  0.8096010628358892  0.4918938311967699   T   T   T
  0.3328560630424342  0.9524246326157763  0.4917723774880293   T   T   T
  0.4758523084309539  0.0950516213814725  0.4964302031179150   T   T   T
  0.4751953637580356  0.2379180323271233  0.5018746546529548   T   T   T
  0.4710900629987322  0.8048769876227602  0.5005909862090649   T   T   T
  0.4754126004320150  0.9517850701067732  0.4975250837335684   T   T   T
  0.6180722171343395  0.0940562215653158  0.5047619893402441   T   T   T
  0.6187532362546345  0.2376943258860489  0.5075606326644275   T   T   T
  0.6236736563729925  0.3792529590386060  0.4916961610001641   T   T   T
  0.6186797842188774  0.8121702495720815  0.5317239462982242   T   T   T
  0.6169430342799940  0.9497472086098341  0.5072355197025279   T   T   T
  0.7603639287190157  0.0932040140159554  0.5091994692066758   T   T   T
  0.7611556674803732  0.2369709168942241  0.5095397626980892   T   T   T
  0.7619526727292742  0.3805785403650918  0.5131411656917161   T   T   T
  0.7633430831717491  0.5260056770908567  0.5172331487918985   T   T   T
  0.7662435687669537  0.6714559246019877  0.5309215357574020   T   T   T
  0.7618665188240136  0.8046019852191468  0.5279973798948119   T   T   T
  0.7600681889062272  0.9493548464218267  0.5149172600083808   T   T   T
  0.9030627459919206  0.0935540764856035  0.5086592019492339   T   T   T
  0.9034506341827224  0.2369315640478090  0.5086726139345090   T   T   T
  0.9042230160869728  0.3804588501001165  0.5094940904293765   T   T   T
  0.9049173759495424  0.5238300509268980  0.5051122281976661   T   T   T
  0.9060283765792396  0.6672812693617607  0.5053504274113936   T   T   T
  0.9059777275320362  0.8101315689094175  0.5083685748064245   T   T   T
  0.9038041303221437  0.9511937078708694  0.5098451231973766   T   T   T
  0.4608572755823730  0.3606238100447051  0.5525951073726790   T   T   T
  0.4071172142655526  0.4138917965439871  0.4248916570972019   T   T   T
  0.4010846098869090  0.5607210754245631  0.4064317689050780   T   T   T
  0.6421642782907209  0.5341401469157810  0.5791668567651871   T   T   T
  0.5854440572942980  0.4231911846093020  0.4537759496131927   T   T   T
  0.5729561881860741  0.7276857849326450  0.5602807283867535   T   T   T
  0.4257045272537814  0.7149104567075710  0.4911825455797389   T   T   T
  0.7194738352116669  0.7153059306002523  0.5389463790827509   T   T   T
  0.5846148325287496  0.6189728192859827  0.5244267702674626   T   T   T
  0.5340952975618876  0.5191978690945687  0.4984881939303574   T   T   T
  0.5280090900459226  0.5719326913375846  0.5000000455000091   T   T   F
 
  0.00000000E+00  0.00000000E+00  0.00000000E+00
  0.00000000E+00  0.00000000E+00  0.00000000E+00
  0.00000000E+00  0.00000000E+00  0.00000000E+00
  0.00000000E+00  0.00000000E+00  0.00000000E+00
  0.00000000E+00  0.00000000E+00  0.00000000E+00
  0.00000000E+00  0.00000000E+00  0.00000000E+00
  0.00000000E+00  0.00000000E+00  0.00000000E+00
  0.00000000E+00  0.00000000E+00  0.00000000E+00
  0.00000000E+00  0.00000000E+00  0.00000000E+00
  0.00000000E+00  0.00000000E+00  0.00000000E+00
  0.00000000E+00  0.00000000E+00  0.00000000E+00
  0.00000000E+00  0.00000000E+00  0.00000000E+00
  0.00000000E+00  0.00000000E+00  0.00000000E+00
  0.00000000E+00  0.00000000E+00  0.00000000E+00
  0.00000000E+00  0.00000000E+00  0.00000000E+00
  0.00000000E+00  0.00000000E+00  0.00000000E+00
  0.00000000E+00  0.00000000E+00  0.00000000E+00
  0.00000000E+00  0.00000000E+00  0.00000000E+00
  0.00000000E+00  0.00000000E+00  0.00000000E+00
  0.00000000E+00  0.00000000E+00  0.00000000E+00
  0.00000000E+00  0.00000000E+00  0.00000000E+00
  0.00000000E+00  0.00000000E+00  0.00000000E+00
  0.00000000E+00  0.00000000E+00  0.00000000E+00
  0.00000000E+00  0.00000000E+00  0.00000000E+00
  0.00000000E+00  0.00000000E+00  0.00000000E+00
  0.00000000E+00  0.00000000E+00  0.00000000E+00
  0.00000000E+00  0.00000000E+00  0.00000000E+00
  0.00000000E+00  0.00000000E+00  0.00000000E+00
  0.00000000E+00  0.00000000E+00  0.00000000E+00
  0.00000000E+00  0.00000000E+00  0.00000000E+00
  0.00000000E+00  0.00000000E+00  0.00000000E+00
  0.00000000E+00  0.00000000E+00  0.00000000E+00
  0.00000000E+00  0.00000000E+00  0.00000000E+00
  0.00000000E+00  0.00000000E+00  0.00000000E+00
  0.00000000E+00  0.00000000E+00  0.00000000E+00
  0.00000000E+00  0.00000000E+00  0.00000000E+00
  0.00000000E+00  0.00000000E+00  0.00000000E+00
  0.00000000E+00  0.00000000E+00  0.00000000E+00
  0.00000000E+00  0.00000000E+00  0.00000000E+00
  0.00000000E+00  0.00000000E+00  0.00000000E+00
  0.00000000E+00  0.00000000E+00  0.00000000E+00
  0.00000000E+00  0.00000000E+00  0.00000000E+00
  0.00000000E+00  0.00000000E+00  0.00000000E+00
  0.00000000E+00  0.00000000E+00  0.00000000E+00
  0.00000000E+00  0.00000000E+00  0.00000000E+00
  0.00000000E+00  0.00000000E+00  0.00000000E+00
  0.00000000E+00  0.00000000E+00  0.00000000E+00
  0.00000000E+00  0.00000000E+00  0.00000000E+00
  0.00000000E+00  0.00000000E+00  0.00000000E+00
  0.00000000E+00  0.00000000E+00  0.00000000E+00
  0.00000000E+00  0.00000000E+00  0.00000000E+00
  0.00000000E+00  0.00000000E+00  0.00000000E+00
  0.00000000E+00  0.00000000E+00  0.00000000E+00
  0.00000000E+00  0.00000000E+00  0.00000000E+00
  0.00000000E+00  0.00000000E+00  0.00000000E+00
  0.00000000E+00  0.00000000E+00  0.00000000E+00
  0.00000000E+00  0.00000000E+00  0.00000000E+00
  0.00000000E+00  0.00000000E+00  0.00000000E+00
  0.00000000E+00  0.00000000E+00  0.00000000E+00
  0.00000000E+00  0.00000000E+00  0.00000000E+00
  0.00000000E+00  0.00000000E+00  0.00000000E+00
  0.00000000E+00  0.00000000E+00  0.00000000E+00
  0.00000000E+00  0.00000000E+00  0.00000000E+00
  0.00000000E+00  0.00000000E+00  0.00000000E+00
  0.00000000E+00  0.00000000E+00  0.00000000E+00
  0.00000000E+00  0.00000000E+00  0.00000000E+00
  0.00000000E+00  0.00000000E+00  0.00000000E+00
  0.00000000E+00  0.00000000E+00  0.00000000E+00
  0.00000000E+00  0.00000000E+00  0.00000000E+00
  0.00000000E+00  0.00000000E+00  0.00000000E+00
  0.00000000E+00  0.00000000E+00  0.00000000E+00
  0.00000000E+00  0.00000000E+00  0.00000000E+00
  0.00000000E+00  0.00000000E+00  0.00000000E+00
  0.00000000E+00  0.00000000E+00  0.00000000E+00
  0.00000000E+00  0.00000000E+00  0.00000000E+00
  0.00000000E+00  0.00000000E+00  0.00000000E+00
  0.00000000E+00  0.00000000E+00  0.00000000E+00
  0.00000000E+00  0.00000000E+00  0.00000000E+00
  0.00000000E+00  0.00000000E+00  0.00000000E+00
  0.00000000E+00  0.00000000E+00  0.00000000E+00
  0.00000000E+00  0.00000000E+00  0.00000000E+00
  0.00000000E+00  0.00000000E+00  0.00000000E+00
  0.00000000E+00  0.00000000E+00  0.00000000E+00
  0.00000000E+00  0.00000000E+00  0.00000000E+00
  0.00000000E+00  0.00000000E+00  0.00000000E+00
  0.00000000E+00  0.00000000E+00  0.00000000E+00
  0.00000000E+00  0.00000000E+00  0.00000000E+00
  0.00000000E+00  0.00000000E+00  0.00000000E+00
  0.00000000E+00  0.00000000E+00  0.00000000E+00
  0.00000000E+00  0.00000000E+00  0.00000000E+00
  0.00000000E+00  0.00000000E+00  0.00000000E+00
  0.00000000E+00  0.00000000E+00  0.00000000E+00
  0.00000000E+00  0.00000000E+00  0.00000000E+00
  0.00000000E+00  0.00000000E+00  0.00000000E+00
  0.00000000E+00  0.00000000E+00  0.00000000E+00
  0.00000000E+00  0.00000000E+00  0.00000000E+00
  0.00000000E+00  0.00000000E+00  0.00000000E+00
