C4                                      
    1.000000000000000     
    17.2710380553999983    0.0000000000000000    0.0000000000000000
    -8.6355190276999991   14.9571577057000002    0.0000000000000000
     0.0000000000000000    0.0000000000000000   15.0000000000000000
   C    H    N 
    84     4     4
Direct
 -0.0000874411661876 -0.0000910364719834  0.2500018983334382
 -0.0006331569235486  0.1424144326906750  0.2499990333810427
 -0.0010864621792757  0.2851057472642650  0.2499986255996448
 -0.0006500030302654  0.4282606754183935  0.2499999527126827
 -0.0000433101718510  0.5713244543418255  0.2499994223203225
  0.0004909182776203  0.7143122528898131  0.2499995487499206
  0.0004358784161923  0.8574531069108020  0.2500004353229499
  0.1437684143610562  0.0010537034219071  0.2500015421512505
  0.1432225212207850  0.1438008357591257  0.2500000965192919
  0.1412804476995198  0.2851548414547754  0.2499994663233727
  0.1413376975556035  0.4274245383868638  0.2499993145889780
  0.1432427603273099  0.5707583480155949  0.2499983233534545
  0.1437493931571580  0.7140190142968560  0.2499977025167246
  0.1437540241007683  0.8575358125011658  0.2500009658204227
  0.2866180156352945  0.0011059758821040  0.2500026076340552
  0.2868571100813483  0.1457544716136033  0.2500003271007168
  0.2861067140234645  0.2922573177923106  0.2500002938322711
  0.2841357896019468  0.4277174603178882  0.2500009881916807
  0.2861584696737120  0.5652039045262304  0.2499988134222587
  0.2868173786474566  0.7124015820356906  0.2499986468363897
  0.2866339333158585  0.8568667088363382  0.2500003968249765
  0.4290712934150113  0.0002851326460663  0.2500006666986087
  0.4297550811764509  0.1451098354110150  0.2499992431959364
  0.4288391889575234  0.2868238225195104  0.2500001521974138
  0.4287657323769576  0.7134252958090314  0.2499998747427751
  0.4296988857132577  0.8561026511586926  0.2499998186263256
  0.5713097017108917 -0.0003205999205504  0.2500007947007192
  0.5713819351075260  0.1430735288688341  0.2500000580461788
  0.5749986306843116  0.2896317146262707  0.2499996005517365
  0.5748936913408947  0.8566823814072236  0.2499999506819023
  0.7142368533953635  0.0001191243394520  0.2500005812164058
  0.7139994285007858  0.1426818969220565  0.2499988246009367
  0.7142319996260151  0.2854276695460220  0.2499991684549093
  0.7104738608220980  0.4249101510904890  0.2499999583964304
  0.7152799522539095  0.5717584430067599  0.2500009862855173
  0.7151872328692003  0.7147478520733903  0.2500008000355149
  0.7103325199293427  0.8567819984360657  0.2500018073954242
  0.8565807315052500 -0.0005116045036994  0.2500002735036604
  0.8566156860080673  0.1425163003055666  0.2499984457935094
  0.8565125682983458  0.2853526872633928  0.2499994539447462
  0.8566216768532774  0.4284183299293458  0.2500000357654656
  0.8562209527022884  0.5708512400363849  0.2499995100713155
  0.8574887363097239  0.7144339826940682  0.2499992666270404
  0.8560944261015020  0.8566329913705136  0.2500013667935790
  0.0476942388809348  0.0953975527690056  0.2500013602243781
  0.0461453104270039  0.2373232843812613  0.2499991226433915
  0.0461539023978680  0.3801246672727350  0.2499992374043213
  0.0477139723917682  0.5236292370386395  0.2499988582236577
  0.0481707140995359  0.6667011757408839  0.2499985580283601
  0.0481502309531334  0.8097183721222938  0.2500003301867494
  0.0481515987193258  0.9527422584333567  0.2500018640904965
  0.1912646660035692  0.0964777383522301  0.2499998767060788
  0.1900366975724824  0.2392625504922797  0.2500002148105014
  0.1883380772164868  0.3797883033695611  0.2499991195064979
  0.1900796664609913  0.5221199038268630  0.2499992742166109
  0.1912564395149627  0.6661349907271821  0.2499975845607410
  0.1913877633869202  0.8096091939733649  0.2499998260755461
  0.1913761099150653  0.9530842534133538  0.2500025050627456
  0.3343512613219413  0.0974676882286194  0.2500009773194461
  0.3352702135008622  0.2422921594457823  0.2500003496720315
  0.3352299950474644  0.6643145193348837  0.2499993914607580
  0.3343461969622397  0.8082281210763985  0.2499994390533275
  0.3337375506039595  0.9525329165093226  0.2500017547136871
  0.4764191212665297  0.0959039216057112  0.2499993245080471
  0.4772021957259671  0.2411654129932862  0.2499985236843373
  0.4770735130220203  0.8074202179764941  0.2499996414631224
  0.4763551941092346  0.9519759243385170  0.2500006116201253
  0.6185886398795385  0.0949724168587450  0.2499996579210273
  0.6194932078568833  0.2386513037019996  0.2499990343836598
  0.6194162928261220  0.9521465246231160  0.2500008401487576
  0.7617028581643133  0.0953801133999290  0.2499994650060282
  0.7616176863759241  0.2376625820312236  0.2499988079929323
  0.7612257505354266  0.3802438830875861  0.2499995639506535
  0.7597573565466649  0.5232070001775453  0.2500002251571572
  0.7615525563488975  0.6664114191425261  0.2500003398002202
  0.7595708172194849  0.8077465732683258  0.2500012874737987
  0.7611501443777339  0.9522025752068128  0.2500015333585951
  0.9040770719411776  0.0944736463916314  0.2499992224916111
  0.9039002535381619  0.2376142134397703  0.2499986398375635
  0.9040421804930513  0.3808445221334591  0.2499999310758027
  0.9044393749027418  0.5238323043634050  0.2499995002911487
  0.9045843386355938  0.6663594121440819  0.2499993460377470
  0.9045548179122761  0.8096023567005463  0.2499998115432142
  0.9043515528107576  0.9518645667832213  0.2500017480375593
  0.4654391552963122  0.3596626400416977  0.2500006471239348
  0.6422525553980877  0.6784368435909146  0.2500012300136306
  0.6423450024296379  0.5350639017573922  0.2500014210457714
  0.4654767508711507  0.6773072196961577  0.2500006799662556
  0.3305208987756483  0.3824194482144462  0.2499997629802876
  0.3305387941065579  0.5194225796754969  0.2500000007642512
  0.6205153619856092  0.3800590878593346  0.2500002203510723
  0.6203746646197144  0.8117368153161324  0.2500002981504642
 
  0.00000000E+00  0.00000000E+00  0.00000000E+00
  0.00000000E+00  0.00000000E+00  0.00000000E+00
  0.00000000E+00  0.00000000E+00  0.00000000E+00
  0.00000000E+00  0.00000000E+00  0.00000000E+00
  0.00000000E+00  0.00000000E+00  0.00000000E+00
  0.00000000E+00  0.00000000E+00  0.00000000E+00
  0.00000000E+00  0.00000000E+00  0.00000000E+00
  0.00000000E+00  0.00000000E+00  0.00000000E+00
  0.00000000E+00  0.00000000E+00  0.00000000E+00
  0.00000000E+00  0.00000000E+00  0.00000000E+00
  0.00000000E+00  0.00000000E+00  0.00000000E+00
  0.00000000E+00  0.00000000E+00  0.00000000E+00
  0.00000000E+00  0.00000000E+00  0.00000000E+00
  0.00000000E+00  0.00000000E+00  0.00000000E+00
  0.00000000E+00  0.00000000E+00  0.00000000E+00
  0.00000000E+00  0.00000000E+00  0.00000000E+00
  0.00000000E+00  0.00000000E+00  0.00000000E+00
  0.00000000E+00  0.00000000E+00  0.00000000E+00
  0.00000000E+00  0.00000000E+00  0.00000000E+00
  0.00000000E+00  0.00000000E+00  0.00000000E+00
  0.00000000E+00  0.00000000E+00  0.00000000E+00
  0.00000000E+00  0.00000000E+00  0.00000000E+00
  0.00000000E+00  0.00000000E+00  0.00000000E+00
  0.00000000E+00  0.00000000E+00  0.00000000E+00
  0.00000000E+00  0.00000000E+00  0.00000000E+00
  0.00000000E+00  0.00000000E+00  0.00000000E+00
  0.00000000E+00  0.00000000E+00  0.00000000E+00
  0.00000000E+00  0.00000000E+00  0.00000000E+00
  0.00000000E+00  0.00000000E+00  0.00000000E+00
  0.00000000E+00  0.00000000E+00  0.00000000E+00
  0.00000000E+00  0.00000000E+00  0.00000000E+00
  0.00000000E+00  0.00000000E+00  0.00000000E+00
  0.00000000E+00  0.00000000E+00  0.00000000E+00
  0.00000000E+00  0.00000000E+00  0.00000000E+00
  0.00000000E+00  0.00000000E+00  0.00000000E+00
  0.00000000E+00  0.00000000E+00  0.00000000E+00
  0.00000000E+00  0.00000000E+00  0.00000000E+00
  0.00000000E+00  0.00000000E+00  0.00000000E+00
  0.00000000E+00  0.00000000E+00  0.00000000E+00
  0.00000000E+00  0.00000000E+00  0.00000000E+00
  0.00000000E+00  0.00000000E+00  0.00000000E+00
  0.00000000E+00  0.00000000E+00  0.00000000E+00
  0.00000000E+00  0.00000000E+00  0.00000000E+00
  0.00000000E+00  0.00000000E+00  0.00000000E+00
  0.00000000E+00  0.00000000E+00  0.00000000E+00
  0.00000000E+00  0.00000000E+00  0.00000000E+00
  0.00000000E+00  0.00000000E+00  0.00000000E+00
  0.00000000E+00  0.00000000E+00  0.00000000E+00
  0.00000000E+00  0.00000000E+00  0.00000000E+00
  0.00000000E+00  0.00000000E+00  0.00000000E+00
  0.00000000E+00  0.00000000E+00  0.00000000E+00
  0.00000000E+00  0.00000000E+00  0.00000000E+00
  0.00000000E+00  0.00000000E+00  0.00000000E+00
  0.00000000E+00  0.00000000E+00  0.00000000E+00
  0.00000000E+00  0.00000000E+00  0.00000000E+00
  0.00000000E+00  0.00000000E+00  0.00000000E+00
  0.00000000E+00  0.00000000E+00  0.00000000E+00
  0.00000000E+00  0.00000000E+00  0.00000000E+00
  0.00000000E+00  0.00000000E+00  0.00000000E+00
  0.00000000E+00  0.00000000E+00  0.00000000E+00
  0.00000000E+00  0.00000000E+00  0.00000000E+00
  0.00000000E+00  0.00000000E+00  0.00000000E+00
  0.00000000E+00  0.00000000E+00  0.00000000E+00
  0.00000000E+00  0.00000000E+00  0.00000000E+00
  0.00000000E+00  0.00000000E+00  0.00000000E+00
  0.00000000E+00  0.00000000E+00  0.00000000E+00
  0.00000000E+00  0.00000000E+00  0.00000000E+00
  0.00000000E+00  0.00000000E+00  0.00000000E+00
  0.00000000E+00  0.00000000E+00  0.00000000E+00
  0.00000000E+00  0.00000000E+00  0.00000000E+00
  0.00000000E+00  0.00000000E+00  0.00000000E+00
  0.00000000E+00  0.00000000E+00  0.00000000E+00
  0.00000000E+00  0.00000000E+00  0.00000000E+00
  0.00000000E+00  0.00000000E+00  0.00000000E+00
  0.00000000E+00  0.00000000E+00  0.00000000E+00
  0.00000000E+00  0.00000000E+00  0.00000000E+00
  0.00000000E+00  0.00000000E+00  0.00000000E+00
  0.00000000E+00  0.00000000E+00  0.00000000E+00
  0.00000000E+00  0.00000000E+00  0.00000000E+00
  0.00000000E+00  0.00000000E+00  0.00000000E+00
  0.00000000E+00  0.00000000E+00  0.00000000E+00
  0.00000000E+00  0.00000000E+00  0.00000000E+00
  0.00000000E+00  0.00000000E+00  0.00000000E+00
  0.00000000E+00  0.00000000E+00  0.00000000E+00
  0.00000000E+00  0.00000000E+00  0.00000000E+00
  0.00000000E+00  0.00000000E+00  0.00000000E+00
  0.00000000E+00  0.00000000E+00  0.00000000E+00
  0.00000000E+00  0.00000000E+00  0.00000000E+00
  0.00000000E+00  0.00000000E+00  0.00000000E+00
  0.00000000E+00  0.00000000E+00  0.00000000E+00
  0.00000000E+00  0.00000000E+00  0.00000000E+00
  0.00000000E+00  0.00000000E+00  0.00000000E+00
