C    H    N    O 
    1.000000000000000     
  17.2710380553999983   0.0000000000000000   0.0000000000000000
  -8.6355190276999991  14.9571577057000002   0.0000000000000000
   0.0000000000000000   0.0000000000000000  15.0000000000000000
C    H    N    O 
84  6  4  1  
Selective dynamics
Direct
  0.0016379374675905  0.0007676251773939  0.5007435494220125 T T T
  0.0011464649643574  0.1432665598001099  0.5004282752412701 T T T
  0.0007630518280485  0.2860496656776289  0.5001320756533608 T T T
  0.0011219946726713  0.4292057105930349  0.5002976518174892 T T T
  0.0015972770210595  0.5721958927279726  0.5005562005449782 T T T
  0.0018738911319015  0.7150100089179960  0.5008105891928445 T T T
  0.0019288342208654  0.8582424440330513  0.5008254122504771 T T T
  0.1453365253956623  0.0018750988685363  0.4997448415136773 T T T
  0.1449435508038199  0.1446422932291583  0.4989316740913119 T T T
  0.1431655025788290  0.2860991141084285  0.4981224989391936 T T T
  0.1431406401905516  0.4283611369981378  0.4980078054973426 T T T
  0.1449589526297113  0.5715914864143468  0.4987457910907144 T T T
  0.1453279924171554  0.7147736326604258  0.4996728037633140 T T T
  0.1452462025148832  0.8582999775602349  0.5002581464971296 T T T
  0.2882355370649164  0.0019527580874914  0.4993686961784138 T T T
  0.2884779008270422  0.1465976390144891  0.4979413171607977 T T T
  0.2879179772097580  0.2929211463223375  0.4953046772088938 T T T
  0.2858749290824975  0.4286136122982263  0.4936682564580283 T T T
  0.2879721290846919  0.5663596180779948  0.4952497273030612 T T T
  0.2885292901088766  0.7132575331169599  0.4980619637011404 T T T
  0.2882330944705576  0.8576704686799151  0.4995253370278404 T T T
  0.4307393851394063  0.0010620752284064  0.4995153199890014 T T T
  0.4314279623704840  0.1458013287159001  0.4991236133555320 T T T
  0.4305687924745027  0.2874256696623095  0.4981460993415016 T T T
  0.4306356483594451  0.7145089022006038  0.4982525060676938 T T T
  0.4314654405108447  0.8570195556810976  0.4992869304086490 T T T
  0.5730694607697411  0.0006170719620309  0.5001136717894756 T T T
  0.5730516701312919  0.1438188546449422  0.5000565854354853 T T T
  0.5767059830118619  0.2903487096057281  0.4999661407599000 T T T
  0.5767983649767759  0.8577735198052732  0.5001030890882050 T T T
  0.7160264892386181  0.0011472221580633  0.5008881767189062 T T T
  0.7157964384468148  0.1436127327436750  0.5008930700606873 T T T
  0.7159926828708540  0.2862872011387124  0.5008352817587978 T T T
  0.7120333871061403  0.4257282902446274  0.5001626050017196 T T T
  0.7163960439698127  0.5724393858568283  0.4976273746470835 T T T
  0.7165033513820337  0.7153787999442228  0.4977293692061304 T T T
  0.7121310525496539  0.8577336723607127  0.5004240816328721 T T T
  0.8584265377728099  0.0004015632692153  0.5012228608130412 T T T
  0.8583944302746621  0.1434325921648148  0.5011689869672850 T T T
  0.8583855840781551  0.2862829920950833  0.5011667842398523 T T T
  0.8584060046186662  0.4293616945657665  0.5010945530081522 T T T
  0.8575926991117253  0.5715924305436275  0.5008387306197902 T T T
  0.8588698475437816  0.7151195162519288  0.5003844753617583 T T T
  0.8576863791133484  0.8574317113574219  0.5009358103604694 T T T
  0.0494316866782898  0.0962354007656385  0.5001680931179030 T T T
  0.0480139763058896  0.2382656812377206  0.4996572800771787 T T T
  0.0480100613294688  0.3810916033793045  0.4995705969641033 T T T
  0.0494165248185904  0.5245172653325125  0.4999332776148318 T T T
  0.0496986499614731  0.6675277219168173  0.5004000342534510 T T T
  0.0495706707284653  0.8104563333717775  0.5006767177026750 T T T
  0.0497323033278964  0.9535300573186832  0.5005018350516509 T T T
  0.1929190499485118  0.0973044190785805  0.4987355212562449 T T T
  0.1919725992155373  0.2401676561193852  0.4976725243447233 T T T
  0.1901692936431836  0.3807330251931090  0.4969557514807731 T T T
  0.1919972315128597  0.5231006787299861  0.4975266892901969 T T T
  0.1929471631599917  0.6669311672267352  0.4986763911251542 T T T
  0.1929361011692813  0.8103856889350249  0.4998455691635725 T T T
  0.1929584743188797  0.9538960087428620  0.4998157258813689 T T T
  0.3360464848373260  0.0983790812195831  0.4988067281799746 T T T
  0.3370130749827867  0.2431354415828658  0.4967578740416516 T T T
  0.3370881545211654  0.6652461052546522  0.4968454280102098 T T T
  0.3360527881854149  0.8090717910919519  0.4989998012111367 T T T
  0.3353476988075387  0.9533737810072968  0.4995085424246476 T T T
  0.4780612682641684  0.0966122796235246  0.4995780040796802 T T T
  0.4788833254913853  0.2418167810767825  0.4991843006116350 T T T
  0.4789403062436339  0.8084462994782411  0.4993165359107936 T T T
  0.4780841545048535  0.9528659204564826  0.4996344818794037 T T T
  0.6203595662253386  0.0958686724230109  0.5003502142194404 T T T
  0.6211932141246806  0.2394147412828316  0.5003474531054179 T T T
  0.6212527021254706  0.9531985752640472  0.5003900680883819 T T T
  0.7635261228046877  0.0963681065351731  0.5010920112430884 T T T
  0.7635029895490014  0.2385579872058869  0.5010744088796476 T T T
  0.7629120341459932  0.3811207802902167  0.5008069919289913 T T T
  0.7610690471431656  0.5240151242178251  0.4997926093859281 T T T
  0.7629581567680939  0.6671395847104226  0.4985395923682308 T T T
  0.7611826710633185  0.8084824368613797  0.4999659947377128 T T T
  0.7629644390191822  0.9532099697624046  0.5010021639468394 T T T
  0.9058734501749114  0.0954199532871923  0.5010797055585291 T T T
  0.9057221227489471  0.2385020969832700  0.5010126095296507 T T T
  0.9058497516513220  0.3817677540727744  0.5010123647120628 T T T
  0.9060473650409556  0.5247302901710806  0.5010348172122288 T T T
  0.9059817794458872  0.6670959927136602  0.5008760343161458 T T T
  0.9060203495562852  0.8102868220691299  0.5007895075589640 T T T
  0.9061075688163748  0.9527285614614576  0.5011907569320578 T T T
  0.4679973396577417  0.3602286255953219  0.4990814990715564 T T T
  0.6436573487937985  0.6786231512463947  0.4947065611021651 T T T
  0.6435318416616820  0.5364031052458503  0.4944694848015255 T T T
  0.4680019707325829  0.6790840311742860  0.4990873580092099 T T T
  0.4602734998962859  0.5586817683928138  0.4193680386960346 T T T
  0.4597450302072292  0.4722661171746110  0.4197877730406923 T T T
  0.3322428384181033  0.3832556702815060  0.4919686438768053 T T T
  0.3322531522517130  0.5203323522277723  0.4919539940750708 T T T
  0.6220575488764383  0.3807031512803857  0.4999746938140353 T T T
  0.6221579007043199  0.8127813607030964  0.5001583834824785 T T T
  0.4949974169329907  0.5327213966617742  0.3953361829999977 T T F
