C    F    N    H    O                   
    1.000000000000000     
    17.2710380553999983    0.0000000000000000    0.0000000000000000
    -8.6355190276999991   14.9571577057000002    0.0000000000000000
     0.0000000000000000    0.0000000000000000   15.0000000000000000
   C    F    N    H    O 
    82     2     6     2     1
Selective dynamics
Direct
  0.9990708702183001  0.0016956763711407  0.4964966293602267   T   T   T
  0.9992913691879178  0.1446895829146833  0.4968166996805582   T   T   T
  0.0000788539701992  0.2883167292072814  0.4970760646354259   T   T   T
  0.0005226422002847  0.4313965171015222  0.4966938535584726   T   T   T
  0.0009146412273929  0.5741735146077097  0.4962497100987349   T   T   T
  0.0012897071454436  0.7171000317776556  0.4960807656806225   T   T   T
  0.9999175189845744  0.8597058995861236  0.4963708461605623   T   T   T
  0.1433576347048420  0.0033605356836395  0.4971352940189834   T   T   T
  0.1430745834463783  0.1457057560839775  0.4969834715488215   T   T   T
  0.1423853188247530  0.2873639019155721  0.4971078197729638   T   T   T
  0.1439385848083306  0.4315104594657495  0.4967748862816574   T   T   T
  0.1448846279896448  0.5742069846494658  0.4962825044471880   T   T   T
  0.1443131531104590  0.7171139720727381  0.4963655203286335   T   T   T
  0.1435380569395663  0.8602823873147628  0.4968821692283573   T   T   T
  0.2863454656737009  0.0035724249543378  0.4967924369856787   T   T   T
  0.2870235045798626  0.1473176795082340  0.4968871866995178   T   T   T
  0.2880680913721777  0.2928775517492052  0.4963985823797442   T   T   T
  0.2851024633919997  0.4264546066679590  0.4959515052404168   T   T   T
  0.2903162426186726  0.5744558679456234  0.4953335418489031   T   T   T
  0.2876770985355557  0.7177863604487892  0.4957446801400271   T   T   T
  0.2865315725331758  0.8606588346870276  0.4962439772318710   T   T   T
  0.4292940241358202  0.0038974819125005  0.4959730897413183   T   T   T
  0.4293713071976161  0.1477573819251280  0.4958740626931869   T   T   T
  0.4295196854260940  0.8602667435011839  0.4955216887522210   T   T   T
  0.5715084547375048  0.0032748178997650  0.4957699977368075   T   T   T
  0.5715550201259542  0.1467670424789320  0.4954938067640650   T   T   T
  0.5738337857887476  0.2935777325433035  0.4942166081138830   T   T   T
  0.5735133801501399  0.8588700036500715  0.4948752736780183   T   T   T
  0.7137004189668427  0.0023804002799827  0.4957301045379012   T   T   T
  0.7142917958518378  0.1460685823630608  0.4961668380008918   T   T   T
  0.7140211820855235  0.2892505827299746  0.4951162404232631   T   T   T
  0.7100022446740588  0.4292591149050362  0.4926139212504996   T   T   T
  0.7086665076777202  0.8577808887328905  0.4935632853487922   T   T   T
  0.8558677942827702  0.0014245829850192  0.4956698059709433   T   T   T
  0.8567385030997993  0.1452659886133830  0.4965937100863708   T   T   T
  0.8570061918843034  0.2885172406676411  0.4963889440941471   T   T   T
  0.8570320206028921  0.4314813845098572  0.4954908061782733   T   T   T
  0.8572508412848093  0.5739580873324570  0.4944389293491505   T   T   T
  0.8582867283504160  0.7163992147755248  0.4935188439874604   T   T   T
  0.8546387807577696  0.8575096367763052  0.4945132313537313   T   T   T
  0.0473310109099692  0.0973686552897164  0.4968304393607732   T   T   T
  0.0468777228604913  0.2398419817618375  0.4971706667376141   T   T   T
  0.0481456614112425  0.3838313528207719  0.4969782747338044   T   T   T
  0.0490708842329736  0.5267293919615981  0.4964809001968335   T   T   T
  0.0488505455165463  0.6695421346030062  0.4963348976656766   T   T   T
  0.0480634902425165  0.8123594341618805  0.4965753561011977   T   T   T
  0.0476144490204652  0.9549222187162171  0.4967854851528771   T   T   T
  0.1912256664258361  0.0986253941859501  0.4971319641902462   T   T   T
  0.1912480206088967  0.2410880799787323  0.4969154238660729   T   T   T
  0.1897420074354624  0.3822182352748945  0.4968000585268506   T   T   T
  0.1933248232962452  0.5269953103527364  0.4962302314375713   T   T   T
  0.1922168852904325  0.6697495069432650  0.4961408112027639   T   T   T
  0.1914307539279588  0.8127186559032514  0.4965329559526093   T   T   T
  0.1911744336286643  0.9556857611947274  0.4970705734303494   T   T   T
  0.3341963041168731  0.0994240684791328  0.4966121537158957   T   T   T
  0.3384052823628480  0.2435453599768364  0.4961175909208866   T   T   T
  0.3393718497852462  0.6733558287672289  0.4952929853607330   T   T   T
  0.3344473610240868  0.8128812818297211  0.4957288658806038   T   T   T
  0.3338773378443243  0.9559441750833580  0.4963341279541995   T   T   T
  0.4766393888711111  0.0993397614877014  0.4957668056594146   T   T   T
  0.4743956478653028  0.2439279746873588  0.4950372093596848   T   T   T
  0.4746123772566523  0.8094764137326470  0.4951658803260151   T   T   T
  0.4766545184123228  0.9558836978125689  0.4956811184602704   T   T   T
  0.6188887241239401  0.0986462018126677  0.4958934080823690   T   T   T
  0.6188630022208476  0.2424596902909466  0.4948841897862490   T   T   T
  0.6186101140300321  0.9547317948545371  0.4954822536166039   T   T   T
  0.7616226518623915  0.0981011105050131  0.4963010357118484   T   T   T
  0.7618322551153301  0.2412266562032430  0.4959633095828319   T   T   T
  0.7612113076273815  0.3843227655267225  0.4944430346949308   T   T   T
  0.7605775200620898  0.5289556089278724  0.4910852789805108   T   T   T
  0.7629880274563682  0.6650130162824087  0.4890286415942695   T   T   T
  0.7576713929503834  0.8079051810685631  0.4921057478976201   T   T   T
  0.7603772206433952  0.9539545910412474  0.4951071201300844   T   T   T
  0.9038124655874318  0.0967633726022760  0.4964821780652503   T   T   T
  0.9046086184711843  0.2407407453005634  0.4968041855242273   T   T   T
  0.9047950507902813  0.3840149560080887  0.4962804072380462   T   T   T
  0.9052620095497875  0.5267093746820450  0.4956922308289521   T   T   T
  0.9058014184474974  0.6690560419160523  0.4947721326191180   T   T   T
  0.9041536980203208  0.8115096230546593  0.4949472017141210   T   T   T
  0.9031785920710539  0.9532244348926862  0.4957124393963605   T   T   T
  0.7155230544510519  0.7138054974059059  0.4876276058918059   T   T   T
  0.3320854135464300  0.5223776578961146  0.4947695517509968   T   T   T
  0.6271142495022726  0.6650220861821381  0.4817030522356500   T   T   T
  0.4213159615994221  0.5619826174580956  0.4931291886023278   T   T   T
  0.4284527303529222  0.2883041959700579  0.4947560253490975   T   T   T
  0.4292618117924119  0.7193267193984114  0.4949702625632382   T   T   T
  0.7168912013113728  0.5743373704901721  0.4860439840035149   T   T   T
  0.3319560376689888  0.3823717155582524  0.4959714006413430   T   T   T
  0.6198768010848865  0.3839272472776530  0.4930342906174745   T   T   T
  0.6187457736430889  0.8139696209012585  0.4937835044123883   T   T   T
  0.4794506825107498  0.4821429588243414  0.5495397105213387   T   T   T
  0.5418109297365228  0.4435996779100644  0.5356352285471478   T   T   T
  0.5356952749743017  0.4884343829962431  0.5697759390000030   T   T   F
 
  0.00000000E+00  0.00000000E+00  0.00000000E+00
  0.00000000E+00  0.00000000E+00  0.00000000E+00
  0.00000000E+00  0.00000000E+00  0.00000000E+00
  0.00000000E+00  0.00000000E+00  0.00000000E+00
  0.00000000E+00  0.00000000E+00  0.00000000E+00
  0.00000000E+00  0.00000000E+00  0.00000000E+00
  0.00000000E+00  0.00000000E+00  0.00000000E+00
  0.00000000E+00  0.00000000E+00  0.00000000E+00
  0.00000000E+00  0.00000000E+00  0.00000000E+00
  0.00000000E+00  0.00000000E+00  0.00000000E+00
  0.00000000E+00  0.00000000E+00  0.00000000E+00
  0.00000000E+00  0.00000000E+00  0.00000000E+00
  0.00000000E+00  0.00000000E+00  0.00000000E+00
  0.00000000E+00  0.00000000E+00  0.00000000E+00
  0.00000000E+00  0.00000000E+00  0.00000000E+00
  0.00000000E+00  0.00000000E+00  0.00000000E+00
  0.00000000E+00  0.00000000E+00  0.00000000E+00
  0.00000000E+00  0.00000000E+00  0.00000000E+00
  0.00000000E+00  0.00000000E+00  0.00000000E+00
  0.00000000E+00  0.00000000E+00  0.00000000E+00
  0.00000000E+00  0.00000000E+00  0.00000000E+00
  0.00000000E+00  0.00000000E+00  0.00000000E+00
  0.00000000E+00  0.00000000E+00  0.00000000E+00
  0.00000000E+00  0.00000000E+00  0.00000000E+00
  0.00000000E+00  0.00000000E+00  0.00000000E+00
  0.00000000E+00  0.00000000E+00  0.00000000E+00
  0.00000000E+00  0.00000000E+00  0.00000000E+00
  0.00000000E+00  0.00000000E+00  0.00000000E+00
  0.00000000E+00  0.00000000E+00  0.00000000E+00
  0.00000000E+00  0.00000000E+00  0.00000000E+00
  0.00000000E+00  0.00000000E+00  0.00000000E+00
  0.00000000E+00  0.00000000E+00  0.00000000E+00
  0.00000000E+00  0.00000000E+00  0.00000000E+00
  0.00000000E+00  0.00000000E+00  0.00000000E+00
  0.00000000E+00  0.00000000E+00  0.00000000E+00
  0.00000000E+00  0.00000000E+00  0.00000000E+00
  0.00000000E+00  0.00000000E+00  0.00000000E+00
  0.00000000E+00  0.00000000E+00  0.00000000E+00
  0.00000000E+00  0.00000000E+00  0.00000000E+00
  0.00000000E+00  0.00000000E+00  0.00000000E+00
  0.00000000E+00  0.00000000E+00  0.00000000E+00
  0.00000000E+00  0.00000000E+00  0.00000000E+00
  0.00000000E+00  0.00000000E+00  0.00000000E+00
  0.00000000E+00  0.00000000E+00  0.00000000E+00
  0.00000000E+00  0.00000000E+00  0.00000000E+00
  0.00000000E+00  0.00000000E+00  0.00000000E+00
  0.00000000E+00  0.00000000E+00  0.00000000E+00
  0.00000000E+00  0.00000000E+00  0.00000000E+00
  0.00000000E+00  0.00000000E+00  0.00000000E+00
  0.00000000E+00  0.00000000E+00  0.00000000E+00
  0.00000000E+00  0.00000000E+00  0.00000000E+00
  0.00000000E+00  0.00000000E+00  0.00000000E+00
  0.00000000E+00  0.00000000E+00  0.00000000E+00
  0.00000000E+00  0.00000000E+00  0.00000000E+00
  0.00000000E+00  0.00000000E+00  0.00000000E+00
  0.00000000E+00  0.00000000E+00  0.00000000E+00
  0.00000000E+00  0.00000000E+00  0.00000000E+00
  0.00000000E+00  0.00000000E+00  0.00000000E+00
  0.00000000E+00  0.00000000E+00  0.00000000E+00
  0.00000000E+00  0.00000000E+00  0.00000000E+00
  0.00000000E+00  0.00000000E+00  0.00000000E+00
  0.00000000E+00  0.00000000E+00  0.00000000E+00
  0.00000000E+00  0.00000000E+00  0.00000000E+00
  0.00000000E+00  0.00000000E+00  0.00000000E+00
  0.00000000E+00  0.00000000E+00  0.00000000E+00
  0.00000000E+00  0.00000000E+00  0.00000000E+00
  0.00000000E+00  0.00000000E+00  0.00000000E+00
  0.00000000E+00  0.00000000E+00  0.00000000E+00
  0.00000000E+00  0.00000000E+00  0.00000000E+00
  0.00000000E+00  0.00000000E+00  0.00000000E+00
  0.00000000E+00  0.00000000E+00  0.00000000E+00
  0.00000000E+00  0.00000000E+00  0.00000000E+00
  0.00000000E+00  0.00000000E+00  0.00000000E+00
  0.00000000E+00  0.00000000E+00  0.00000000E+00
  0.00000000E+00  0.00000000E+00  0.00000000E+00
  0.00000000E+00  0.00000000E+00  0.00000000E+00
  0.00000000E+00  0.00000000E+00  0.00000000E+00
  0.00000000E+00  0.00000000E+00  0.00000000E+00
  0.00000000E+00  0.00000000E+00  0.00000000E+00
  0.00000000E+00  0.00000000E+00  0.00000000E+00
  0.00000000E+00  0.00000000E+00  0.00000000E+00
  0.00000000E+00  0.00000000E+00  0.00000000E+00
  0.00000000E+00  0.00000000E+00  0.00000000E+00
  0.00000000E+00  0.00000000E+00  0.00000000E+00
  0.00000000E+00  0.00000000E+00  0.00000000E+00
  0.00000000E+00  0.00000000E+00  0.00000000E+00
  0.00000000E+00  0.00000000E+00  0.00000000E+00
  0.00000000E+00  0.00000000E+00  0.00000000E+00
  0.00000000E+00  0.00000000E+00  0.00000000E+00
  0.00000000E+00  0.00000000E+00  0.00000000E+00
  0.00000000E+00  0.00000000E+00  0.00000000E+00
  0.00000000E+00  0.00000000E+00  0.00000000E+00
  0.00000000E+00  0.00000000E+00  0.00000000E+00
