C    F    N    H    O                   
    1.000000000000000     
    17.2710380553999983    0.0000000000000000    0.0000000000000000
    -8.6355190276999991   14.9571577057000002    0.0000000000000000
     0.0000000000000000    0.0000000000000000   15.0000000000000000
   C    F    N    H    O 
    82     2     6     2     1
Selective dynamics
Direct
  0.9990212503115365  0.0016222144941664  0.4964145024183685   T   T   T
  0.9992487739333470  0.1446285243482734  0.4966664638042348   T   T   T
  1.0000472486375738  0.2882691495262135  0.4970129451687325   T   T   T
  0.0004906216269671  0.4313423062173990  0.4966406822168095   T   T   T
  0.0008770006905967  0.5741145692791654  0.4961577440506275   T   T   T
  0.0012440836653606  0.7170329445594702  0.4959703837517264   T   T   T
  0.9998686769731846  0.8596415615584281  0.4962753179930845   T   T   T
  0.1433118986988885  0.0032932483486445  0.4970029686988300   T   T   T
  0.1430251430183826  0.1456336731499841  0.4968949423453705   T   T   T
  0.1423348979593612  0.2872910593200120  0.4969751916560341   T   T   T
  0.1439011711614800  0.4314431751445970  0.4965982537187305   T   T   T
  0.1448509830704347  0.5741386950304119  0.4960938876295780   T   T   T
  0.1442722604640859  0.7170440603922337  0.4961567690745454   T   T   T
  0.1434807995153143  0.8602075611515431  0.4966861354414407   T   T   T
  0.2862911114621871  0.0034970791193040  0.4965811708544725   T   T   T
  0.2869831401215147  0.1472476538666427  0.4968287078176014   T   T   T
  0.2880049273502930  0.2927919151074780  0.4964180051073795   T   T   T
  0.2850600881465875  0.4263789492557048  0.4958384506053043   T   T   T
  0.2902788249993806  0.5743917330763233  0.4950394636749860   T   T   T
  0.2876394912028192  0.7177235048892895  0.4954070857833369   T   T   T
  0.2864797669220965  0.8605930807165755  0.4959900834254888   T   T   T
  0.4292539349490631  0.0038358020174472  0.4957526981913362   T   T   T
  0.4293198324594232  0.1476727342494146  0.4957772600180886   T   T   T
  0.4294807246432123  0.8602176721521660  0.4951946038046779   T   T   T
  0.5714750581828107  0.0032134829786100  0.4955979854533182   T   T   T
  0.5715210140694873  0.1467002417665972  0.4953728038367577   T   T   T
  0.5737899290950511  0.2934910007742579  0.4942522898839124   T   T   T
  0.5734696850197242  0.8588066569970705  0.4945618865708200   T   T   T
  0.7136635929451158  0.0023202800442317  0.4955685263320824   T   T   T
  0.7142674161254693  0.1460166149587394  0.4960697307477592   T   T   T
  0.7139848819128501  0.2891965348556291  0.4951120374198840   T   T   T
  0.7099381372805763  0.4291852688358264  0.4926667183673338   T   T   T
  0.7086120577880186  0.8577096120409544  0.4934106319706295   T   T   T
  0.8558207709714026  0.0013558779364601  0.4955484476829499   T   T   T
  0.8567085027310893  0.1452144914013881  0.4965035865788702   T   T   T
  0.8569789896282038  0.2884691558313233  0.4963557844862742   T   T   T
  0.8569986732402242  0.4314305328792451  0.4954955141748159   T   T   T
  0.8572030706310861  0.5738909525633608  0.4944445293036606   T   T   T
  0.8582302619576951  0.7163262048120682  0.4935341961910062   T   T   T
  0.8545819314191375  0.8574372154224174  0.4944799651540969   T   T   T
  0.0472822045513199  0.0972980956524790  0.4967170020929766   T   T   T
  0.0468339721496630  0.2397797813710670  0.4970524404114252   T   T   T
  0.0481112293995642  0.3837774298127678  0.4969075635239839   T   T   T
  0.0490353720474738  0.5266718333609584  0.4963880078929678   T   T   T
  0.0488076034990836  0.6694768732249399  0.4961948790410095   T   T   T
  0.0480052166814016  0.8122891968485724  0.4964220064363885   T   T   T
  0.0475663041629122  0.9548588929471985  0.4966907678334562   T   T   T
  0.1911727004546403  0.0985554694003318  0.4970316034404402   T   T   T
  0.1911842219667997  0.2410043417628115  0.4968258246527975   T   T   T
  0.1896988476547541  0.3821452048322486  0.4966300833697386   T   T   T
  0.1932905917858667  0.5269299491456024  0.4960045398042578   T   T   T
  0.1921829138698902  0.6696841206530405  0.4958834003348422   T   T   T
  0.1913792798543927  0.8126451393059788  0.4963258271564608   T   T   T
  0.1911146172123498  0.9556081927971817  0.4968769927360096   T   T   T
  0.3341502172848999  0.0993516630573759  0.4965036469969020   T   T   T
  0.3383549158010349  0.2434719281740486  0.4961857941752784   T   T   T
  0.3393302679254447  0.6732921493456048  0.4948803616776458   T   T   T
  0.3344010215814186  0.8128188143167543  0.4953863530525798   T   T   T
  0.3338346528184502  0.9558771340858633  0.4961061598010619   T   T   T
  0.4766035439949310  0.0992692645212321  0.4955903592757585   T   T   T
  0.4743507407400240  0.2438421512977567  0.4950837003179470   T   T   T
  0.4745638019753502  0.8094164707034588  0.4947615892067154   T   T   T
  0.4766245195171725  0.9558325065996706  0.4954798766606777   T   T   T
  0.6188630886386214  0.0985826057094148  0.4957598530288638   T   T   T
  0.6188257612793484  0.2423863218817091  0.4948558163219819   T   T   T
  0.6185740910550511  0.9546716576095748  0.4952829639913318   T   T   T
  0.7615931123833309  0.0980427005153481  0.4962059786582515   T   T   T
  0.7617993655090727  0.2411698368204671  0.4959060006635826   T   T   T
  0.7611697564121973  0.3842636906885606  0.4944891014810638   T   T   T
  0.7605180568300837  0.5288823717377212  0.4911354305046479   T   T   T
  0.7629226612087471  0.6649311902001434  0.4890677275168593   T   T   T
  0.7576104299353995  0.8078257896366071  0.4920466461495410   T   T   T
  0.7603319236730479  0.9538869003249797  0.4949659416302703   T   T   T
  0.9037681645718815  0.0966968377192117  0.4963345144199587   T   T   T
  0.9045719619580435  0.2406824717281922  0.4967498534337589   T   T   T
  0.9047627100996013  0.3839622268429543  0.4962599360603371   T   T   T
  0.9052201629219349  0.5266489239343746  0.4956696488869677   T   T   T
  0.9057433342082631  0.6689842060764739  0.4947507757377148   T   T   T
  0.9040994819171196  0.8114409684142874  0.4949279629137511   T   T   T
  0.9031299968588404  0.9531519259471789  0.4956493192753405   T   T   T
  0.7154466838696245  0.7137185987178681  0.4876492436775303   T   T   T
  0.3320535551582145  0.5223063941865608  0.4946144373456074   T   T   T
  0.6270317028894760  0.6649659221932395  0.4817788066934631   T   T   T
  0.4212937490215000  0.5619160104784326  0.4930513696184614   T   T   T
  0.4284127259797938  0.2882296972865213  0.4949432520616068   T   T   T
  0.4292190442551533  0.7192681056750045  0.4945088371050729   T   T   T
  0.7168436218396428  0.5742640323100081  0.4860704315986632   T   T   T
  0.3319000337219020  0.3822826352191461  0.4960173357712097   T   T   T
  0.6198160076583364  0.3838310832584664  0.4930667243176139   T   T   T
  0.6186958853234656  0.8139038049927053  0.4935072239034211   T   T   T
  0.4797674161287607  0.4829163476002443  0.5516835333647491   T   T   T
  0.5403284494066833  0.4426105214310779  0.5356407922362862   T   T   T
  0.5363539248464242  0.4886772037141818  0.5697759390000030   T   T   F
 
  0.00000000E+00  0.00000000E+00  0.00000000E+00
  0.00000000E+00  0.00000000E+00  0.00000000E+00
  0.00000000E+00  0.00000000E+00  0.00000000E+00
  0.00000000E+00  0.00000000E+00  0.00000000E+00
  0.00000000E+00  0.00000000E+00  0.00000000E+00
  0.00000000E+00  0.00000000E+00  0.00000000E+00
  0.00000000E+00  0.00000000E+00  0.00000000E+00
  0.00000000E+00  0.00000000E+00  0.00000000E+00
  0.00000000E+00  0.00000000E+00  0.00000000E+00
  0.00000000E+00  0.00000000E+00  0.00000000E+00
  0.00000000E+00  0.00000000E+00  0.00000000E+00
  0.00000000E+00  0.00000000E+00  0.00000000E+00
  0.00000000E+00  0.00000000E+00  0.00000000E+00
  0.00000000E+00  0.00000000E+00  0.00000000E+00
  0.00000000E+00  0.00000000E+00  0.00000000E+00
  0.00000000E+00  0.00000000E+00  0.00000000E+00
  0.00000000E+00  0.00000000E+00  0.00000000E+00
  0.00000000E+00  0.00000000E+00  0.00000000E+00
  0.00000000E+00  0.00000000E+00  0.00000000E+00
  0.00000000E+00  0.00000000E+00  0.00000000E+00
  0.00000000E+00  0.00000000E+00  0.00000000E+00
  0.00000000E+00  0.00000000E+00  0.00000000E+00
  0.00000000E+00  0.00000000E+00  0.00000000E+00
  0.00000000E+00  0.00000000E+00  0.00000000E+00
  0.00000000E+00  0.00000000E+00  0.00000000E+00
  0.00000000E+00  0.00000000E+00  0.00000000E+00
  0.00000000E+00  0.00000000E+00  0.00000000E+00
  0.00000000E+00  0.00000000E+00  0.00000000E+00
  0.00000000E+00  0.00000000E+00  0.00000000E+00
  0.00000000E+00  0.00000000E+00  0.00000000E+00
  0.00000000E+00  0.00000000E+00  0.00000000E+00
  0.00000000E+00  0.00000000E+00  0.00000000E+00
  0.00000000E+00  0.00000000E+00  0.00000000E+00
  0.00000000E+00  0.00000000E+00  0.00000000E+00
  0.00000000E+00  0.00000000E+00  0.00000000E+00
  0.00000000E+00  0.00000000E+00  0.00000000E+00
  0.00000000E+00  0.00000000E+00  0.00000000E+00
  0.00000000E+00  0.00000000E+00  0.00000000E+00
  0.00000000E+00  0.00000000E+00  0.00000000E+00
  0.00000000E+00  0.00000000E+00  0.00000000E+00
  0.00000000E+00  0.00000000E+00  0.00000000E+00
  0.00000000E+00  0.00000000E+00  0.00000000E+00
  0.00000000E+00  0.00000000E+00  0.00000000E+00
  0.00000000E+00  0.00000000E+00  0.00000000E+00
  0.00000000E+00  0.00000000E+00  0.00000000E+00
  0.00000000E+00  0.00000000E+00  0.00000000E+00
  0.00000000E+00  0.00000000E+00  0.00000000E+00
  0.00000000E+00  0.00000000E+00  0.00000000E+00
  0.00000000E+00  0.00000000E+00  0.00000000E+00
  0.00000000E+00  0.00000000E+00  0.00000000E+00
  0.00000000E+00  0.00000000E+00  0.00000000E+00
  0.00000000E+00  0.00000000E+00  0.00000000E+00
  0.00000000E+00  0.00000000E+00  0.00000000E+00
  0.00000000E+00  0.00000000E+00  0.00000000E+00
  0.00000000E+00  0.00000000E+00  0.00000000E+00
  0.00000000E+00  0.00000000E+00  0.00000000E+00
  0.00000000E+00  0.00000000E+00  0.00000000E+00
  0.00000000E+00  0.00000000E+00  0.00000000E+00
  0.00000000E+00  0.00000000E+00  0.00000000E+00
  0.00000000E+00  0.00000000E+00  0.00000000E+00
  0.00000000E+00  0.00000000E+00  0.00000000E+00
  0.00000000E+00  0.00000000E+00  0.00000000E+00
  0.00000000E+00  0.00000000E+00  0.00000000E+00
  0.00000000E+00  0.00000000E+00  0.00000000E+00
  0.00000000E+00  0.00000000E+00  0.00000000E+00
  0.00000000E+00  0.00000000E+00  0.00000000E+00
  0.00000000E+00  0.00000000E+00  0.00000000E+00
  0.00000000E+00  0.00000000E+00  0.00000000E+00
  0.00000000E+00  0.00000000E+00  0.00000000E+00
  0.00000000E+00  0.00000000E+00  0.00000000E+00
  0.00000000E+00  0.00000000E+00  0.00000000E+00
  0.00000000E+00  0.00000000E+00  0.00000000E+00
  0.00000000E+00  0.00000000E+00  0.00000000E+00
  0.00000000E+00  0.00000000E+00  0.00000000E+00
  0.00000000E+00  0.00000000E+00  0.00000000E+00
  0.00000000E+00  0.00000000E+00  0.00000000E+00
  0.00000000E+00  0.00000000E+00  0.00000000E+00
  0.00000000E+00  0.00000000E+00  0.00000000E+00
  0.00000000E+00  0.00000000E+00  0.00000000E+00
  0.00000000E+00  0.00000000E+00  0.00000000E+00
  0.00000000E+00  0.00000000E+00  0.00000000E+00
  0.00000000E+00  0.00000000E+00  0.00000000E+00
  0.00000000E+00  0.00000000E+00  0.00000000E+00
  0.00000000E+00  0.00000000E+00  0.00000000E+00
  0.00000000E+00  0.00000000E+00  0.00000000E+00
  0.00000000E+00  0.00000000E+00  0.00000000E+00
  0.00000000E+00  0.00000000E+00  0.00000000E+00
  0.00000000E+00  0.00000000E+00  0.00000000E+00
  0.00000000E+00  0.00000000E+00  0.00000000E+00
  0.00000000E+00  0.00000000E+00  0.00000000E+00
  0.00000000E+00  0.00000000E+00  0.00000000E+00
  0.00000000E+00  0.00000000E+00  0.00000000E+00
  0.00000000E+00  0.00000000E+00  0.00000000E+00
