C    F    N    H    O                   
    1.000000000000000     
    17.2710380553999983    0.0000000000000000    0.0000000000000000
    -8.6355190276999991   14.9571577057000002    0.0000000000000000
     0.0000000000000000    0.0000000000000000   15.0000000000000000
   C    F    N    H    O 
    86     6     2     2     1
Selective dynamics
Direct
  0.0002418923132946  0.0002634391654930  0.5035598888999184   T   T   T
  0.9996129180973401  0.1427707122398290  0.5068195379809528   T   T   T
  0.9997898374108368  0.2858392454829652  0.5067364033286836   T   T   T
  0.0004759384429831  0.4289628862624147  0.5059773588802633   T   T   T
  0.0010144493923972  0.5720900971640500  0.5013057032121209   T   T   T
  0.0018619895957902  0.7154194437589930  0.4984184478036998   T   T   T
  0.0019508214891083  0.8585460509161726  0.4993937701339257   T   T   T
  0.1436017024541483  0.0010281330891076  0.4932664426326588   T   T   T
  0.1426586419783970  0.1433705242866486  0.4976684067341922   T   T   T
  0.1419801189708775  0.2859370716705648  0.4955028677818797   T   T   T
  0.1428798393169638  0.4292747923191723  0.4935304277244285   T   T   T
  0.1436832588240337  0.5719572803793519  0.4954852313281405   T   T   T
  0.1437835347913534  0.7149456978397560  0.4933325461043461   T   T   T
  0.1439385939494871  0.8581143557051043  0.4923625463904027   T   T   T
  0.2862745692567803  0.0006698777852524  0.4914275955497221   T   T   T
  0.2857998503756229  0.1431118790969047  0.4896449094729063   T   T   T
  0.2845080402683999  0.2863482294307437  0.4836143149328095   T   T   T
  0.2815756327386904  0.4270460032865657  0.4613820325709596   T   T   T
  0.2863792844925919  0.5726977005634649  0.4728217396579713   T   T   T
  0.2860374963355488  0.7153679479097472  0.4878806290511579   T   T   T
  0.2860620215696187  0.8581427166298720  0.4912825124515415   T   T   T
  0.4291591770567422  0.0005311952120223  0.4950825525510552   T   T   T
  0.4288891130771365  0.1433677278153954  0.4948689044732519   T   T   T
  0.4240550482642847  0.2797609243430811  0.5122566600913410   T   T   T
  0.4280610342960232  0.8570513557662832  0.4941873797509558   T   T   T
  0.5712344899636045  0.9993702468966037  0.5033119603905558   T   T   T
  0.5716793332314788  0.1428533311174061  0.5055855695861772   T   T   T
  0.5724721832199774  0.2865168521333519  0.5022001898302701   T   T   T
  0.5693199690640267  0.8544370210491249  0.5056434285582505   T   T   T
  0.7133265336409610  0.9979118466899998  0.5111092849662854   T   T   T
  0.7142665112033656  0.1422265130958716  0.5105758428258816   T   T   T
  0.7148203301133254  0.2859677566578068  0.5118663347760023   T   T   T
  0.7158272736446200  0.4298135156157771  0.5093051113160703   T   T   T
  0.7241858262653045  0.5779626298151447  0.5362473416107303   T   T   T
  0.7136480786915426  0.8542569656799094  0.5190435256218637   T   T   T
  0.8567582072067725  0.9992200526392697  0.5120192561430689   T   T   T
  0.8565882496581694  0.1422038870471075  0.5114991756614158   T   T   T
  0.8572347926671509  0.2856280341275302  0.5121301756632199   T   T   T
  0.8581716251816501  0.4292027074213873  0.5119660957244188   T   T   T
  0.8592102034811494  0.5732138268794116  0.5065177687120556   T   T   T
  0.8608498605023209  0.7166168329010055  0.5101997496134633   T   T   T
  0.8585485647031985  0.8571476527199480  0.5123310377342423   T   T   T
  0.0476005618882489  0.0955601542404981  0.5031701346246578   T   T   T
  0.0469595281770130  0.2380196706422322  0.5039879460454691   T   T   T
  0.0477353648463660  0.3812907241132650  0.5032508297130797   T   T   T
  0.0485248875649808  0.5242618500810650  0.5016789377277568   T   T   T
  0.0487405327634999  0.6673776371265364  0.4970386796114618   T   T   T
  0.0490215272453940  0.8105278660534728  0.4959266593959041   T   T   T
  0.0485114720453875  0.9533433961888962  0.4983883163667526   T   T   T
  0.1905410233663769  0.0958433312937401  0.4919237178108484   T   T   T
  0.1894563892688262  0.2385069445343053  0.4940749836884672   T   T   T
  0.1889949840261216  0.3808039867359785  0.4862920369933117   T   T   T
  0.1914495359485139  0.5247059425227447  0.4893402041180731   T   T   T
  0.1909852792286946  0.6672672966573859  0.4917078051579462   T   T   T
  0.1912406856068429  0.8103459049719810  0.4916154195386965   T   T   T
  0.1912853564568340  0.9532424998900938  0.4914762496418708   T   T   T
  0.3337731022925020  0.0958944706275948  0.4919743266799501   T   T   T
  0.3328826458055111  0.2382725785254222  0.4930529423392223   T   T   T
  0.3242508100425046  0.3753569730929396  0.4556163953272895   T   T   T
  0.3245022721344432  0.5211439647824372  0.4469378994862871   T   T   T
  0.3366332497845299  0.6708491699949918  0.4804527546235928   T   T   T
  0.3333451272197129  0.8102537677483886  0.4908016697873830   T   T   T
  0.3338366464278309  0.9531260500632375  0.4920839708273263   T   T   T
  0.4767988441854742  0.0957251356078905  0.4975670906735646   T   T   T
  0.4761090309207758  0.2385268188178893  0.5015775559578948   T   T   T
  0.4719951403297935  0.8055629093117156  0.4950610912474167   T   T   T
  0.4763394466206879  0.9524547067416985  0.4977088561269441   T   T   T
  0.6189340845248671  0.0947255784400032  0.5070835415973041   T   T   T
  0.6196536219386750  0.2384308194973495  0.5089482692342867   T   T   T
  0.6245217232605758  0.3796851066527824  0.4904185430470002   T   T   T
  0.6197777394285978  0.8114010795880243  0.5168742658529306   T   T   T
  0.6178530891424788  0.9503478376362554  0.5065219955903226   T   T   T
  0.7613283925011846  0.0939671344106871  0.5113083868069106   T   T   T
  0.7620835686711239  0.2377303001052874  0.5119983378403763   T   T   T
  0.7628469425342641  0.3814054186381597  0.5139409600643596   T   T   T
  0.7639738677577026  0.5267900190260474  0.5154534316849011   T   T   T
  0.7671802557000342  0.6725120601829359  0.5266810688677122   T   T   T
  0.7629381895285661  0.8052954619884529  0.5223544816795124   T   T   T
  0.7612116755582257  0.9502426538554912  0.5140452276376228   T   T   T
  0.9041880368112244  0.0944776971064888  0.5104731344620533   T   T   T
  0.9044621685323166  0.2377533483208505  0.5108119818911283   T   T   T
  0.9052010289583974  0.3812584129428360  0.5109240466884221   T   T   T
  0.9058617448159951  0.5246435705743827  0.5056561669270309   T   T   T
  0.9070463314421872  0.6680858224621397  0.5044627231203624   T   T   T
  0.9072484283602857  0.8111097614498562  0.5066824194271582   T   T   T
  0.9050413636884580  0.9521888727181451  0.5093097859599485   T   T   T
  0.4620478143066028  0.3618084073330205  0.5503700069893053   T   T   T
  0.4065114096294857  0.4123465722928374  0.4190982046916594   T   T   T
  0.4025750397532075  0.5612344890236958  0.4039274799777182   T   T   T
  0.6409496125437505  0.5363691424210104  0.5709099234522180   T   T   T
  0.5863063256615100  0.4228318022450719  0.4506950786910069   T   T   T
  0.5737900976971987  0.7226552582075957  0.5260727970931468   T   T   T
  0.4262850945641011  0.7157262002162768  0.4847976536460195   T   T   T
  0.7202087528077595  0.7160881580428944  0.5331452740417953   T   T   T
  0.5528921247138853  0.6000544694334713  0.5461140229133065   T   T   T
  0.5107304503634974  0.5024462538040745  0.5172791394367759   T   T   T
  0.4953073114099718  0.5469878704119073  0.5348879996666724   T   T   F
 
  0.00000000E+00  0.00000000E+00  0.00000000E+00
  0.00000000E+00  0.00000000E+00  0.00000000E+00
  0.00000000E+00  0.00000000E+00  0.00000000E+00
  0.00000000E+00  0.00000000E+00  0.00000000E+00
  0.00000000E+00  0.00000000E+00  0.00000000E+00
  0.00000000E+00  0.00000000E+00  0.00000000E+00
  0.00000000E+00  0.00000000E+00  0.00000000E+00
  0.00000000E+00  0.00000000E+00  0.00000000E+00
  0.00000000E+00  0.00000000E+00  0.00000000E+00
  0.00000000E+00  0.00000000E+00  0.00000000E+00
  0.00000000E+00  0.00000000E+00  0.00000000E+00
  0.00000000E+00  0.00000000E+00  0.00000000E+00
  0.00000000E+00  0.00000000E+00  0.00000000E+00
  0.00000000E+00  0.00000000E+00  0.00000000E+00
  0.00000000E+00  0.00000000E+00  0.00000000E+00
  0.00000000E+00  0.00000000E+00  0.00000000E+00
  0.00000000E+00  0.00000000E+00  0.00000000E+00
  0.00000000E+00  0.00000000E+00  0.00000000E+00
  0.00000000E+00  0.00000000E+00  0.00000000E+00
  0.00000000E+00  0.00000000E+00  0.00000000E+00
  0.00000000E+00  0.00000000E+00  0.00000000E+00
  0.00000000E+00  0.00000000E+00  0.00000000E+00
  0.00000000E+00  0.00000000E+00  0.00000000E+00
  0.00000000E+00  0.00000000E+00  0.00000000E+00
  0.00000000E+00  0.00000000E+00  0.00000000E+00
  0.00000000E+00  0.00000000E+00  0.00000000E+00
  0.00000000E+00  0.00000000E+00  0.00000000E+00
  0.00000000E+00  0.00000000E+00  0.00000000E+00
  0.00000000E+00  0.00000000E+00  0.00000000E+00
  0.00000000E+00  0.00000000E+00  0.00000000E+00
  0.00000000E+00  0.00000000E+00  0.00000000E+00
  0.00000000E+00  0.00000000E+00  0.00000000E+00
  0.00000000E+00  0.00000000E+00  0.00000000E+00
  0.00000000E+00  0.00000000E+00  0.00000000E+00
  0.00000000E+00  0.00000000E+00  0.00000000E+00
  0.00000000E+00  0.00000000E+00  0.00000000E+00
  0.00000000E+00  0.00000000E+00  0.00000000E+00
  0.00000000E+00  0.00000000E+00  0.00000000E+00
  0.00000000E+00  0.00000000E+00  0.00000000E+00
  0.00000000E+00  0.00000000E+00  0.00000000E+00
  0.00000000E+00  0.00000000E+00  0.00000000E+00
  0.00000000E+00  0.00000000E+00  0.00000000E+00
  0.00000000E+00  0.00000000E+00  0.00000000E+00
  0.00000000E+00  0.00000000E+00  0.00000000E+00
  0.00000000E+00  0.00000000E+00  0.00000000E+00
  0.00000000E+00  0.00000000E+00  0.00000000E+00
  0.00000000E+00  0.00000000E+00  0.00000000E+00
  0.00000000E+00  0.00000000E+00  0.00000000E+00
  0.00000000E+00  0.00000000E+00  0.00000000E+00
  0.00000000E+00  0.00000000E+00  0.00000000E+00
  0.00000000E+00  0.00000000E+00  0.00000000E+00
  0.00000000E+00  0.00000000E+00  0.00000000E+00
  0.00000000E+00  0.00000000E+00  0.00000000E+00
  0.00000000E+00  0.00000000E+00  0.00000000E+00
  0.00000000E+00  0.00000000E+00  0.00000000E+00
  0.00000000E+00  0.00000000E+00  0.00000000E+00
  0.00000000E+00  0.00000000E+00  0.00000000E+00
  0.00000000E+00  0.00000000E+00  0.00000000E+00
  0.00000000E+00  0.00000000E+00  0.00000000E+00
  0.00000000E+00  0.00000000E+00  0.00000000E+00
  0.00000000E+00  0.00000000E+00  0.00000000E+00
  0.00000000E+00  0.00000000E+00  0.00000000E+00
  0.00000000E+00  0.00000000E+00  0.00000000E+00
  0.00000000E+00  0.00000000E+00  0.00000000E+00
  0.00000000E+00  0.00000000E+00  0.00000000E+00
  0.00000000E+00  0.00000000E+00  0.00000000E+00
  0.00000000E+00  0.00000000E+00  0.00000000E+00
  0.00000000E+00  0.00000000E+00  0.00000000E+00
  0.00000000E+00  0.00000000E+00  0.00000000E+00
  0.00000000E+00  0.00000000E+00  0.00000000E+00
  0.00000000E+00  0.00000000E+00  0.00000000E+00
  0.00000000E+00  0.00000000E+00  0.00000000E+00
  0.00000000E+00  0.00000000E+00  0.00000000E+00
  0.00000000E+00  0.00000000E+00  0.00000000E+00
  0.00000000E+00  0.00000000E+00  0.00000000E+00
  0.00000000E+00  0.00000000E+00  0.00000000E+00
  0.00000000E+00  0.00000000E+00  0.00000000E+00
  0.00000000E+00  0.00000000E+00  0.00000000E+00
  0.00000000E+00  0.00000000E+00  0.00000000E+00
  0.00000000E+00  0.00000000E+00  0.00000000E+00
  0.00000000E+00  0.00000000E+00  0.00000000E+00
  0.00000000E+00  0.00000000E+00  0.00000000E+00
  0.00000000E+00  0.00000000E+00  0.00000000E+00
  0.00000000E+00  0.00000000E+00  0.00000000E+00
  0.00000000E+00  0.00000000E+00  0.00000000E+00
  0.00000000E+00  0.00000000E+00  0.00000000E+00
  0.00000000E+00  0.00000000E+00  0.00000000E+00
  0.00000000E+00  0.00000000E+00  0.00000000E+00
  0.00000000E+00  0.00000000E+00  0.00000000E+00
  0.00000000E+00  0.00000000E+00  0.00000000E+00
  0.00000000E+00  0.00000000E+00  0.00000000E+00
  0.00000000E+00  0.00000000E+00  0.00000000E+00
  0.00000000E+00  0.00000000E+00  0.00000000E+00
  0.00000000E+00  0.00000000E+00  0.00000000E+00
  0.00000000E+00  0.00000000E+00  0.00000000E+00
  0.00000000E+00  0.00000000E+00  0.00000000E+00
  0.00000000E+00  0.00000000E+00  0.00000000E+00
