C    F    N    H    O                   
    1.000000000000000     
    17.2710380553999983    0.0000000000000000    0.0000000000000000
    -8.6355190276999991   14.9571577057000002    0.0000000000000000
     0.0000000000000000    0.0000000000000000   15.0000000000000000
   C    F    N    H    O 
    86     6     2     2     1
Selective dynamics
Direct
  0.0001651423566076  0.0002122358171660  0.5034875120724220   T   T   T
  0.9995609875346477  0.1427327016272457  0.5070018726547006   T   T   T
  0.9997654638885642  0.2858271906223556  0.5070660187917265   T   T   T
  1.0004221082386286  0.4289393271226545  0.5061314444956728   T   T   T
  0.0009476671874923  0.5720498752705414  0.5011136272799167   T   T   T
  0.0018002307495042  0.7153850301739920  0.4980162821424525   T   T   T
  0.0018819222615148  0.8585033485582517  0.4990783569960688   T   T   T
  0.1435332881999245  0.0009762339387091  0.4934450086170014   T   T   T
  0.1425918691920112  0.1433011230462365  0.4982860556702555   T   T   T
  0.1419731938553206  0.2859333875613173  0.4964612934442919   T   T   T
  0.1429006283160131  0.4292862115107063  0.4945502256905217   T   T   T
  0.1436253708109189  0.5719326943499241  0.4960777407994971   T   T   T
  0.1437187361852135  0.7149159620578041  0.4935074370821081   T   T   T
  0.1438754744964812  0.8580861447006863  0.4923478754400635   T   T   T
  0.2862178258958449  1.0006178137384902  0.4917366186576881   T   T   T
  0.2857377628795117  0.1430636813168473  0.4903050167890164   T   T   T
  0.2844572981315465  0.2862998539130771  0.4848457316965988   T   T   T
  0.2817009609939838  0.4271169114658131  0.4629094151266818   T   T   T
  0.2863973894284202  0.5727215099580744  0.4740683993580728   T   T   T
  0.2859986629696248  0.7153820640465293  0.4886145678640899   T   T   T
  0.2860011283727771  0.8581245864388369  0.4915826886113370   T   T   T
  0.4290997802948937  1.0005026313554561  0.4953566931049673   T   T   T
  0.4288104426970449  0.1433079107967765  0.4953537041121820   T   T   T
  0.4240033216706695  0.2796736945009656  0.5132504821476749   T   T   T
  0.4280300326222231  0.8570709093374264  0.4946502389593394   T   T   T
  0.5712042929441884  0.9993686347350070  0.5033426484296848   T   T   T
  0.5716289666795937  0.1428093702898841  0.5056422862573056   T   T   T
  0.5723787469768150  0.2864363884479374  0.5024823667979839   T   T   T
  0.5693012540183204  0.8544696449265692  0.5059017735109609   T   T   T
  0.7133145016271898  0.9979108704112657  0.5108611156128308   T   T   T
  0.7142451916409659  0.1422094408124632  0.5102820879409249   T   T   T
  0.7147671666171261  0.2859231849347431  0.5115702798407651   T   T   T
  0.7157355868176964  0.4297505423364207  0.5089026468676817   T   T   T
  0.7242000499950177  0.5779210473697263  0.5356400708151995   T   T   T
  0.7136221938034708  0.8542399390747251  0.5188421848106032   T   T   T
  0.8567016526049559  0.9991917528630050  0.5117223345946732   T   T   T
  0.8565588876912860  0.1421930541669834  0.5112534712676803   T   T   T
  0.8571929239871434  0.2856110259780319  0.5118394479951672   T   T   T
  0.8580871991566948  0.4291670437406482  0.5114501829952023   T   T   T
  0.8591480564058521  0.5731685265831516  0.5057785949232179   T   T   T
  0.8607861977696739  0.7165650964011678  0.5095192201580474   T   T   T
  0.8584819609329467  0.8570996804497316  0.5118914700375206   T   T   T
  0.0475416684333592  0.0955054170454527  0.5034173704236397   T   T   T
  0.0469197575764630  0.2379913009663194  0.5044895364330940   T   T   T
  0.0477073287442075  0.3812854696821272  0.5037813005963018   T   T   T
  0.0484649363001522  0.5242343628357546  0.5019067812852517   T   T   T
  0.0486913510830863  0.6673466092641700  0.4968943275710108   T   T   T
  0.0489641444307502  0.8104969803022740  0.4956692526750558   T   T   T
  0.0484397205532594  0.9532961521648970  0.4982991144635472   T   T   T
  0.1904837787638067  0.0957864687707312  0.4924385255953670   T   T   T
  0.1894090277797651  0.2384484659021713  0.4950300642363079   T   T   T
  0.1890521753218578  0.3808439132013678  0.4875364449395796   T   T   T
  0.1914428727069936  0.5247176587268063  0.4903463991629078   T   T   T
  0.1909270597512485  0.6672474120085623  0.4922330557860171   T   T   T
  0.1911753225291533  0.8103113989976217  0.4917666187255295   T   T   T
  0.1912078846210499  0.9531984227510343  0.4916254770015074   T   T   T
  0.3336952844818588  0.0958405604417921  0.4924603635709909   T   T   T
  0.3328323431005259  0.2382149415429178  0.4940083446175571   T   T   T
  0.3242987446407301  0.3753989049915008  0.4571882106030043   T   T   T
  0.3246497190252367  0.5212193709655740  0.4484804367919902   T   T   T
  0.3366003499361415  0.6708646971410686  0.4815128082396557   T   T   T
  0.3332939643606933  0.8102543033785280  0.4913170387843989   T   T   T
  0.3337597052820506  0.9530932485642282  0.4923675711326662   T   T   T
  0.4767393883669773  0.0956916520789333  0.4978325425323578   T   T   T
  0.4760273862807652  0.2384472775612096  0.5022293748208638   T   T   T
  0.4719633767914176  0.8055930500333709  0.4956557797055974   T   T   T
  0.4762975884336931  0.9524569885604521  0.4979530610961402   T   T   T
  0.6189201977965126  0.0947185874110787  0.5069741905350522   T   T   T
  0.6196083048460647  0.2383811862331652  0.5089413802824825   T   T   T
  0.6243451205346001  0.3795798279788936  0.4904802572447675   T   T   T
  0.6197544016146614  0.8114240824226168  0.5169998380058565   T   T   T
  0.6178340363156977  0.9503577666190288  0.5065055113834688   T   T   T
  0.7613051719948799  0.0939553896539366  0.5109626058136049   T   T   T
  0.7620536558548329  0.2377072114261071  0.5116315134555030   T   T   T
  0.7627750437511804  0.3813510858636268  0.5134713497915008   T   T   T
  0.7639298275927359  0.5267273948540080  0.5147770514897513   T   T   T
  0.7671294914235967  0.6724557633820393  0.5260233073185718   T   T   T
  0.7628752120450781  0.8052449922993604  0.5219452368587623   T   T   T
  0.7611690150500779  0.9502192134602894  0.5137320938932568   T   T   T
  0.9041316346104734  0.0944477995455601  0.5103084132595364   T   T   T
  0.9044251345249250  0.2377433707503126  0.5106995811116852   T   T   T
  0.9051424183761038  0.3812381120222688  0.5106572910020106   T   T   T
  0.9057976330921186  0.5246033692404635  0.5050956652854075   T   T   T
  0.9069853147484458  0.6680436116066559  0.5038121379212125   T   T   T
  0.9071813500065926  0.8110599140240033  0.5062037950907792   T   T   T
  0.9049626599130604  0.9521450763303132  0.5090156922131417   T   T   T
  0.4620414617990929  0.3616219061951607  0.5515991431655913   T   T   T
  0.4066481591263710  0.4124419558946159  0.4209302582359550   T   T   T
  0.4028114557789867  0.5613228432585560  0.4057340796245419   T   T   T
  0.6411686221391960  0.5363114718524924  0.5707383459464354   T   T   T
  0.5858564320488048  0.4225723321101972  0.4509896096691161   T   T   T
  0.5738228939701385  0.7227285760340652  0.5264561909686286   T   T   T
  0.4262387529123763  0.7157327219443642  0.4857957519935396   T   T   T
  0.7201519049630734  0.7160200219930744  0.5326668072677989   T   T   T
  0.5544099019744425  0.6005357665825599  0.5467501998796704   T   T   T
  0.5116247388281161  0.5036059277357321  0.5154007055238594   T   T   T
  0.4966302221742362  0.5479477066492755  0.5348879996666724   T   T   F
 
  0.00000000E+00  0.00000000E+00  0.00000000E+00
  0.00000000E+00  0.00000000E+00  0.00000000E+00
  0.00000000E+00  0.00000000E+00  0.00000000E+00
  0.00000000E+00  0.00000000E+00  0.00000000E+00
  0.00000000E+00  0.00000000E+00  0.00000000E+00
  0.00000000E+00  0.00000000E+00  0.00000000E+00
  0.00000000E+00  0.00000000E+00  0.00000000E+00
  0.00000000E+00  0.00000000E+00  0.00000000E+00
  0.00000000E+00  0.00000000E+00  0.00000000E+00
  0.00000000E+00  0.00000000E+00  0.00000000E+00
  0.00000000E+00  0.00000000E+00  0.00000000E+00
  0.00000000E+00  0.00000000E+00  0.00000000E+00
  0.00000000E+00  0.00000000E+00  0.00000000E+00
  0.00000000E+00  0.00000000E+00  0.00000000E+00
  0.00000000E+00  0.00000000E+00  0.00000000E+00
  0.00000000E+00  0.00000000E+00  0.00000000E+00
  0.00000000E+00  0.00000000E+00  0.00000000E+00
  0.00000000E+00  0.00000000E+00  0.00000000E+00
  0.00000000E+00  0.00000000E+00  0.00000000E+00
  0.00000000E+00  0.00000000E+00  0.00000000E+00
  0.00000000E+00  0.00000000E+00  0.00000000E+00
  0.00000000E+00  0.00000000E+00  0.00000000E+00
  0.00000000E+00  0.00000000E+00  0.00000000E+00
  0.00000000E+00  0.00000000E+00  0.00000000E+00
  0.00000000E+00  0.00000000E+00  0.00000000E+00
  0.00000000E+00  0.00000000E+00  0.00000000E+00
  0.00000000E+00  0.00000000E+00  0.00000000E+00
  0.00000000E+00  0.00000000E+00  0.00000000E+00
  0.00000000E+00  0.00000000E+00  0.00000000E+00
  0.00000000E+00  0.00000000E+00  0.00000000E+00
  0.00000000E+00  0.00000000E+00  0.00000000E+00
  0.00000000E+00  0.00000000E+00  0.00000000E+00
  0.00000000E+00  0.00000000E+00  0.00000000E+00
  0.00000000E+00  0.00000000E+00  0.00000000E+00
  0.00000000E+00  0.00000000E+00  0.00000000E+00
  0.00000000E+00  0.00000000E+00  0.00000000E+00
  0.00000000E+00  0.00000000E+00  0.00000000E+00
  0.00000000E+00  0.00000000E+00  0.00000000E+00
  0.00000000E+00  0.00000000E+00  0.00000000E+00
  0.00000000E+00  0.00000000E+00  0.00000000E+00
  0.00000000E+00  0.00000000E+00  0.00000000E+00
  0.00000000E+00  0.00000000E+00  0.00000000E+00
  0.00000000E+00  0.00000000E+00  0.00000000E+00
  0.00000000E+00  0.00000000E+00  0.00000000E+00
  0.00000000E+00  0.00000000E+00  0.00000000E+00
  0.00000000E+00  0.00000000E+00  0.00000000E+00
  0.00000000E+00  0.00000000E+00  0.00000000E+00
  0.00000000E+00  0.00000000E+00  0.00000000E+00
  0.00000000E+00  0.00000000E+00  0.00000000E+00
  0.00000000E+00  0.00000000E+00  0.00000000E+00
  0.00000000E+00  0.00000000E+00  0.00000000E+00
  0.00000000E+00  0.00000000E+00  0.00000000E+00
  0.00000000E+00  0.00000000E+00  0.00000000E+00
  0.00000000E+00  0.00000000E+00  0.00000000E+00
  0.00000000E+00  0.00000000E+00  0.00000000E+00
  0.00000000E+00  0.00000000E+00  0.00000000E+00
  0.00000000E+00  0.00000000E+00  0.00000000E+00
  0.00000000E+00  0.00000000E+00  0.00000000E+00
  0.00000000E+00  0.00000000E+00  0.00000000E+00
  0.00000000E+00  0.00000000E+00  0.00000000E+00
  0.00000000E+00  0.00000000E+00  0.00000000E+00
  0.00000000E+00  0.00000000E+00  0.00000000E+00
  0.00000000E+00  0.00000000E+00  0.00000000E+00
  0.00000000E+00  0.00000000E+00  0.00000000E+00
  0.00000000E+00  0.00000000E+00  0.00000000E+00
  0.00000000E+00  0.00000000E+00  0.00000000E+00
  0.00000000E+00  0.00000000E+00  0.00000000E+00
  0.00000000E+00  0.00000000E+00  0.00000000E+00
  0.00000000E+00  0.00000000E+00  0.00000000E+00
  0.00000000E+00  0.00000000E+00  0.00000000E+00
  0.00000000E+00  0.00000000E+00  0.00000000E+00
  0.00000000E+00  0.00000000E+00  0.00000000E+00
  0.00000000E+00  0.00000000E+00  0.00000000E+00
  0.00000000E+00  0.00000000E+00  0.00000000E+00
  0.00000000E+00  0.00000000E+00  0.00000000E+00
  0.00000000E+00  0.00000000E+00  0.00000000E+00
  0.00000000E+00  0.00000000E+00  0.00000000E+00
  0.00000000E+00  0.00000000E+00  0.00000000E+00
  0.00000000E+00  0.00000000E+00  0.00000000E+00
  0.00000000E+00  0.00000000E+00  0.00000000E+00
  0.00000000E+00  0.00000000E+00  0.00000000E+00
  0.00000000E+00  0.00000000E+00  0.00000000E+00
  0.00000000E+00  0.00000000E+00  0.00000000E+00
  0.00000000E+00  0.00000000E+00  0.00000000E+00
  0.00000000E+00  0.00000000E+00  0.00000000E+00
  0.00000000E+00  0.00000000E+00  0.00000000E+00
  0.00000000E+00  0.00000000E+00  0.00000000E+00
  0.00000000E+00  0.00000000E+00  0.00000000E+00
  0.00000000E+00  0.00000000E+00  0.00000000E+00
  0.00000000E+00  0.00000000E+00  0.00000000E+00
  0.00000000E+00  0.00000000E+00  0.00000000E+00
  0.00000000E+00  0.00000000E+00  0.00000000E+00
  0.00000000E+00  0.00000000E+00  0.00000000E+00
  0.00000000E+00  0.00000000E+00  0.00000000E+00
  0.00000000E+00  0.00000000E+00  0.00000000E+00
  0.00000000E+00  0.00000000E+00  0.00000000E+00
  0.00000000E+00  0.00000000E+00  0.00000000E+00
