C4                                      
    1.000000000000000     
    17.2710380553999983    0.0000000000000000    0.0000000000000000
    -8.6355190276999991   14.9571577057000002    0.0000000000000000
     0.0000000000000000    0.0000000000000000   15.0000000000000000
   C    H    N 
    86     6     2
Direct
 -0.0004536402455877 -0.0004686091911377  0.2499999738095469
 -0.0003376624365822  0.1424555336432756  0.2499999871439639
 -0.0001652385737937  0.2855397831426666  0.2499999619282672
 -0.0002979566273848  0.4285577989886571  0.2499999697537455
 -0.0003533709190216  0.5713792221136689  0.2499999903463573
 -0.0001667245937544  0.7141114650817953  0.2499999676684293
 -0.0002534402922751  0.8570496097960030  0.2499999465223402
  0.1432131445711676  0.0003033888108443  0.2499999692879739
  0.1429838726013820  0.1429809269732491  0.2499999910563085
  0.1422202978012678  0.2851499867113618  0.2499999869444200
  0.1422205815633285  0.4284031546895274  0.2499999713286145
  0.1430153845382043  0.5714386729251316  0.2499999919483801
  0.1432293300087469  0.7143270636084988  0.2500000000086218
  0.1430743055369852  0.8572445984307706  0.2499999755361779
  0.2861992085032282  0.0002558589830912  0.2499999933913093
  0.2865640794907892  0.1433624346227591  0.2500000032617602
  0.2864271230716932  0.2872827734883415  0.2500000281622133
  0.2840417967201403  0.4277121209740890  0.2500000264445523
  0.2863843037708094  0.5705482403650242  0.2500000122665268
  0.2865721498446234  0.7147499783103742  0.2500000146628348
  0.2862118010949907  0.8574463377923579  0.2500000114166346
  0.4291182615222555  0.0003308474885989  0.2500000052660932
  0.4298295870745082  0.1437207673721119  0.2499999957365595
  0.4287902109260566  0.2838680836153363  0.2500000223001440
  0.4287208235308572  0.7163791434184185  0.2500000177676932
  0.4297669346508271  0.8575389310893735  0.2500000263572325
  0.5717501152063442  0.0003070272882716  0.2500000221180744
  0.5718740593554413  0.1430242635223075  0.2499999916418706
  0.5753515330659498  0.2888628336490113  0.2500000060518059
  0.5751487952725119  0.8577936515152681  0.2500000222470546
  0.7146641948970334  0.0005937710400255  0.2500000210637910
  0.7146565823370660  0.1429848984911055  0.2500000116480324
  0.7147806204075478  0.2853880085710338  0.2500000057928085
  0.7103323157473198  0.4245695624605260  0.2500000273046495
  0.7148093450890339  0.5713813287429403  0.2500000237200919
  0.7146767224678405  0.7145537541535789  0.2500000063463003
  0.7100280225293399  0.8568387654871521  0.2500000023845818
  0.8565753654136768 -0.0004492619144041  0.2499999995947411
  0.8571842559775604  0.1428490165876406  0.2500000007474690
  0.8572207244947692  0.2856200612498373  0.2500000030852790
  0.8567177930320210  0.4283895756128424  0.2500000085556883
  0.8557842484984634  0.5706247658254558  0.2499999947173744
  0.8568377715491710  0.7141023770429262  0.2499999753860269
  0.8555626336713910  0.8564034914922165  0.2499999798444670
  0.0475529901243403  0.0950148059914892  0.2499999850335350
  0.0469345910232418  0.2374541525036583  0.2499999740357297
  0.0469448721270791  0.3807778295898736  0.2499999517724115
  0.0475894017762748  0.5239205623625278  0.2499999805657658
  0.0476412375515988  0.6667343061102391  0.2499999876824916
  0.0474441059031615  0.8094201726794765  0.2499999581358789
  0.0475696623102448  0.9522165779324459  0.2499999564719912
  0.1909132694863396  0.0953586882032005  0.2499999885186207
  0.1903872851061527  0.2381541479090180  0.2500000035712130
  0.1887050777618782  0.3800248447022540  0.2499999927798851
  0.1903550775338692  0.5236157071890579  0.2499999919022247
  0.1909282634182694  0.6670125791020267  0.2500000076232803
  0.1909373772462120  0.8097890082670602  0.2499999973519730
  0.1909129660817735  0.9525435591073765  0.2499999778902394
  0.3343500647037468  0.0959625660505267  0.2499999959205324
  0.3353599723179301  0.2388923745283118  0.2500000213530090
  0.3303339417830189  0.3799880735168498  0.2500000439394134
  0.3303004867689934  0.5217088282023574  0.2500000260986409
  0.3352951679440999  0.6679427610726062  0.2500000158861889
  0.3343209114074268  0.8098907456321099  0.2500000180823356
  0.3336572548191045  0.9525654837057057  0.2500000053413438
  0.4768468011222628  0.0954881330976581  0.2499999932187053
  0.4775845373818478  0.2394045270340459  0.2500000090783390
  0.4775016264093588  0.8096313434142511  0.2500000253549607
  0.4767148827089357  0.9527903070975714  0.2500000186978233
  0.6192566426984740  0.0953640420413473  0.2500000084140171
  0.6200668215877203  0.2384066987735900  0.2499999910970209
  0.6199218664409553  0.9529944896283802  0.2500000291156531
  0.7622865066626139  0.0957194074295925  0.2500000136341540
  0.7623317757554167  0.2378687615587575  0.2500000103146268
  0.7613691173637049  0.3801372190224690  0.2500000167678689
  0.7592941728027190  0.5228637369028334  0.2500000208179984
  0.7608509402023996  0.6660419753146826  0.2500000039484553
  0.7590208591445867  0.8075312037386261  0.2499999974203235
  0.7611749518666526  0.9523262491818897  0.2500000090164890
  0.9043390802987300  0.0945903546066644  0.2499999972839975
  0.9047275201394810  0.2379900682647321  0.2499999870809257
  0.9043910555460764  0.3810437959669452  0.2499999990203255
  0.9041477720253138  0.5237711025569013  0.2499999964339515
  0.9039878626396807  0.6660875612039912  0.2499999713082565
  0.9038765996355655  0.8092526211797775  0.2499999613800094
  0.9040096669919490  0.9516373029673695  0.2499999837066034
  0.4677258640972480  0.3565099335079733  0.2500000134189567
  0.4030669397325669  0.4188923910750821  0.2500000304460324
  0.4030380243808768  0.5555876970513725  0.2500000175799956
  0.6417638289099440  0.6783640248191356  0.2500000076442511
  0.6418979794956586  0.5345281684505216  0.2500000212621927
  0.4676798292626628  0.6827052167400466  0.2500000055000754
  0.6202796116206154  0.3793117664214177  0.2500000304632951
  0.6199951953716845  0.8121734084682783  0.2500000080511848
 
  0.00000000E+00  0.00000000E+00  0.00000000E+00
  0.00000000E+00  0.00000000E+00  0.00000000E+00
  0.00000000E+00  0.00000000E+00  0.00000000E+00
  0.00000000E+00  0.00000000E+00  0.00000000E+00
  0.00000000E+00  0.00000000E+00  0.00000000E+00
  0.00000000E+00  0.00000000E+00  0.00000000E+00
  0.00000000E+00  0.00000000E+00  0.00000000E+00
  0.00000000E+00  0.00000000E+00  0.00000000E+00
  0.00000000E+00  0.00000000E+00  0.00000000E+00
  0.00000000E+00  0.00000000E+00  0.00000000E+00
  0.00000000E+00  0.00000000E+00  0.00000000E+00
  0.00000000E+00  0.00000000E+00  0.00000000E+00
  0.00000000E+00  0.00000000E+00  0.00000000E+00
  0.00000000E+00  0.00000000E+00  0.00000000E+00
  0.00000000E+00  0.00000000E+00  0.00000000E+00
  0.00000000E+00  0.00000000E+00  0.00000000E+00
  0.00000000E+00  0.00000000E+00  0.00000000E+00
  0.00000000E+00  0.00000000E+00  0.00000000E+00
  0.00000000E+00  0.00000000E+00  0.00000000E+00
  0.00000000E+00  0.00000000E+00  0.00000000E+00
  0.00000000E+00  0.00000000E+00  0.00000000E+00
  0.00000000E+00  0.00000000E+00  0.00000000E+00
  0.00000000E+00  0.00000000E+00  0.00000000E+00
  0.00000000E+00  0.00000000E+00  0.00000000E+00
  0.00000000E+00  0.00000000E+00  0.00000000E+00
  0.00000000E+00  0.00000000E+00  0.00000000E+00
  0.00000000E+00  0.00000000E+00  0.00000000E+00
  0.00000000E+00  0.00000000E+00  0.00000000E+00
  0.00000000E+00  0.00000000E+00  0.00000000E+00
  0.00000000E+00  0.00000000E+00  0.00000000E+00
  0.00000000E+00  0.00000000E+00  0.00000000E+00
  0.00000000E+00  0.00000000E+00  0.00000000E+00
  0.00000000E+00  0.00000000E+00  0.00000000E+00
  0.00000000E+00  0.00000000E+00  0.00000000E+00
  0.00000000E+00  0.00000000E+00  0.00000000E+00
  0.00000000E+00  0.00000000E+00  0.00000000E+00
  0.00000000E+00  0.00000000E+00  0.00000000E+00
  0.00000000E+00  0.00000000E+00  0.00000000E+00
  0.00000000E+00  0.00000000E+00  0.00000000E+00
  0.00000000E+00  0.00000000E+00  0.00000000E+00
  0.00000000E+00  0.00000000E+00  0.00000000E+00
  0.00000000E+00  0.00000000E+00  0.00000000E+00
  0.00000000E+00  0.00000000E+00  0.00000000E+00
  0.00000000E+00  0.00000000E+00  0.00000000E+00
  0.00000000E+00  0.00000000E+00  0.00000000E+00
  0.00000000E+00  0.00000000E+00  0.00000000E+00
  0.00000000E+00  0.00000000E+00  0.00000000E+00
  0.00000000E+00  0.00000000E+00  0.00000000E+00
  0.00000000E+00  0.00000000E+00  0.00000000E+00
  0.00000000E+00  0.00000000E+00  0.00000000E+00
  0.00000000E+00  0.00000000E+00  0.00000000E+00
  0.00000000E+00  0.00000000E+00  0.00000000E+00
  0.00000000E+00  0.00000000E+00  0.00000000E+00
  0.00000000E+00  0.00000000E+00  0.00000000E+00
  0.00000000E+00  0.00000000E+00  0.00000000E+00
  0.00000000E+00  0.00000000E+00  0.00000000E+00
  0.00000000E+00  0.00000000E+00  0.00000000E+00
  0.00000000E+00  0.00000000E+00  0.00000000E+00
  0.00000000E+00  0.00000000E+00  0.00000000E+00
  0.00000000E+00  0.00000000E+00  0.00000000E+00
  0.00000000E+00  0.00000000E+00  0.00000000E+00
  0.00000000E+00  0.00000000E+00  0.00000000E+00
  0.00000000E+00  0.00000000E+00  0.00000000E+00
  0.00000000E+00  0.00000000E+00  0.00000000E+00
  0.00000000E+00  0.00000000E+00  0.00000000E+00
  0.00000000E+00  0.00000000E+00  0.00000000E+00
  0.00000000E+00  0.00000000E+00  0.00000000E+00
  0.00000000E+00  0.00000000E+00  0.00000000E+00
  0.00000000E+00  0.00000000E+00  0.00000000E+00
  0.00000000E+00  0.00000000E+00  0.00000000E+00
  0.00000000E+00  0.00000000E+00  0.00000000E+00
  0.00000000E+00  0.00000000E+00  0.00000000E+00
  0.00000000E+00  0.00000000E+00  0.00000000E+00
  0.00000000E+00  0.00000000E+00  0.00000000E+00
  0.00000000E+00  0.00000000E+00  0.00000000E+00
  0.00000000E+00  0.00000000E+00  0.00000000E+00
  0.00000000E+00  0.00000000E+00  0.00000000E+00
  0.00000000E+00  0.00000000E+00  0.00000000E+00
  0.00000000E+00  0.00000000E+00  0.00000000E+00
  0.00000000E+00  0.00000000E+00  0.00000000E+00
  0.00000000E+00  0.00000000E+00  0.00000000E+00
  0.00000000E+00  0.00000000E+00  0.00000000E+00
  0.00000000E+00  0.00000000E+00  0.00000000E+00
  0.00000000E+00  0.00000000E+00  0.00000000E+00
  0.00000000E+00  0.00000000E+00  0.00000000E+00
  0.00000000E+00  0.00000000E+00  0.00000000E+00
  0.00000000E+00  0.00000000E+00  0.00000000E+00
  0.00000000E+00  0.00000000E+00  0.00000000E+00
  0.00000000E+00  0.00000000E+00  0.00000000E+00
  0.00000000E+00  0.00000000E+00  0.00000000E+00
  0.00000000E+00  0.00000000E+00  0.00000000E+00
  0.00000000E+00  0.00000000E+00  0.00000000E+00
  0.00000000E+00  0.00000000E+00  0.00000000E+00
  0.00000000E+00  0.00000000E+00  0.00000000E+00
