C4                                      
    1.000000000000000     
    17.2710380553999983    0.0000000000000000    0.0000000000000000
    -8.6355190276999991   14.9571577057000002    0.0000000000000000
     0.0000000000000000    0.0000000000000000   15.0000000000000000
   C    H    F 
    88     6     2
Direct
 -0.0000811943085135 -0.0000331637663670  0.2499985836663628
 -0.0001986198843701  0.1427884928485794  0.2500006466397613
 -0.0002849452666663  0.2855597931664767  0.2499999195360924
 -0.0002533968917151  0.4284805149009072  0.2499987434627096
 -0.0000769525743619  0.5713898396270785  0.2499995502199154
  0.0006467996510464  0.7145148917827830  0.2499985621923606
  0.0005994101866802  0.8575817100030650  0.2499997659822000
  0.1430004938242520  0.0001946344687719  0.2500000649168024
  0.1427813938474204  0.1430069952485000  0.2499994151135898
  0.1421537325997745  0.2852618350965591  0.2500010047083202
  0.1421450888011425  0.4283165872463896  0.2499990942182704
  0.1428145131708541  0.5712484360682010  0.2499988204833567
  0.1429793723870969  0.7142153550839708  0.2499985175635185
  0.1429372529553624  0.8571838230836905  0.2500000788443977
  0.2853527039653914 -0.0004239180905690  0.2499997776102813
  0.2855150563546480  0.1424429508031588  0.2499984359838896
  0.2859780993333773  0.2870001575708937  0.2500003256160735
  0.2840416058983830  0.4277327316642906  0.2500001738865029
  0.2860080454766731  0.5704586898794113  0.2499989923611138
  0.2855309815982854  0.7146060480563672  0.2499985591269577
  0.2853005770595326  0.8572207075101965  0.2499987794771544
  0.4284073269302554 -0.0001249797192099  0.2500001953725554
  0.4281505161805811  0.1419558323955430  0.2499988394796901
  0.4269236431400945  0.2817117101003077  0.2499992281915296
  0.4269858287778770  0.7167576706813696  0.2499993649551466
  0.4281162999571935  0.8576136260973954  0.2499997743488477
  0.5713510301261804  0.0007137140811087  0.2500019104933233
  0.5712988635638905  0.1421069396349512  0.2500010031512301
  0.5720534553789143  0.2841308893269934  0.2499993926776675
  0.5720780830569404  0.8594680204642440  0.2500002305682144
  0.7144986381490189  0.0006580299651796  0.2500015598526640
  0.7145569100871899  0.1430241544949052  0.2500027110948477
  0.7143917650742557  0.2852382316055512  0.2500001177833869
  0.7130274502180846  0.4266092335872642  0.2499993789464659
  0.7192429623899580  0.5739988942915349  0.2500000427844378
  0.7191236116112880  0.7167124114722282  0.2500020324805674
  0.7130601812962387  0.8579680348500979  0.2499995561557495
  0.8571182944420737  0.0003077842352097  0.2499999443251261
  0.8571635892741104  0.1429973387332978  0.2500029385665458
  0.8571069814861513  0.2855802220816410  0.2500003229975671
  0.8570395144872434  0.4282726989842643  0.2499997302887294
  0.8573541016956225  0.5715708042019656  0.2500001364222439
  0.8590537012083538  0.7153094615127069  0.2499987902836946
  0.8572752879339436  0.8572389509532623  0.2499983236236121
  0.0476169345647754  0.0953150667120727  0.2499992919189909
  0.0469423173761527  0.2376671377213369  0.2500007849151123
  0.0469200784253664  0.3807183032548714  0.2499989041230071
  0.0476151020156111  0.5237808102467609  0.2499992358222968
  0.0477906045826673  0.6666890146985192  0.2499992965609674
  0.0478583788613492  0.8096599752731237  0.2499992352590457
  0.0477924912055026  0.9525239219222740  0.2499988947482563
  0.1903158864510783  0.0950370409893850  0.2499987943416316
  0.1901201129945637  0.2381348889069199  0.2500004466383437
  0.1887314655830843  0.3800744178200235  0.2500008545306313
  0.1901269029128284  0.5234467490724218  0.2499986868390048
  0.1903494497255611  0.6667509660412628  0.2499985847216210
  0.1903996068853310  0.8095750703845480  0.2499986948254454
  0.1904295882085516  0.9522420936225190  0.2500007406150539
  0.3330630347518541  0.0949065389826698  0.2499986661531301
  0.3340144675997641  0.2377192484108221  0.2499992257385129
  0.3301748480659834  0.3797876144401940  0.2500002100435004
  0.3301802929357759  0.5217906524196423  0.2499995652853350
  0.3340654726311784  0.6678508937702047  0.2499987887861709
  0.3330422254443863  0.8096940010495808  0.2499989909231461
  0.3329303210318693  0.9521641060594023  0.2499996219145693
  0.4760752814678716  0.0946708562338325  0.2500003558195030
  0.4754028765785575  0.2367965697045712  0.2499989168251896
  0.4754414631378741  0.8101043506894087  0.2499999547991077
  0.4761103293510911  0.9527871088512342  0.2499997574362523
  0.6190768327417896  0.0953020225764274  0.2500025044640227
  0.6192722821573625  0.2368991057939464  0.2499999651413099
  0.6200546569530355  0.3768950234001677  0.2499995194155131
  0.6201127249444642  0.8147825182795319  0.2499992649220045
  0.6193638959186190  0.9539278871150327  0.2500014702611166
  0.7622125190880001  0.0957632615544004  0.2500029572746132
  0.7621683761211441  0.2379146800085531  0.2500012307500101
  0.7619203481719062  0.3802735277587954  0.2499992575627006
  0.7613564555306616  0.5234554878980320  0.2500005517005892
  0.7638925758944859  0.6677284903155647  0.2499994732477006
  0.7612637287376923  0.8093571918318123  0.2499994808532996
  0.7620188661223490  0.9531764660599727  0.2500001833037973
  0.9046347124808579  0.0951123255937528  0.2500015343688100
  0.9046213848886504  0.2380388203149523  0.2500014904991560
  0.9045362804062487  0.3809275685861327  0.2499998928823479
  0.9046922906481629  0.5237916163547498  0.2500002318415849
  0.9053902591806973  0.6667689464595543  0.2499991533395766
  0.9053715985260486  0.8101661613360969  0.2499989775750994
  0.9046655718926597  0.9523451578715127  0.2499984820220148
  0.4631929874713085  0.3542101057697551  0.2500000671584146
  0.4029281976491803  0.4188783875648125  0.2499998837073612
  0.4029327278401413  0.5554379590493200  0.2499999455758374
  0.5825938839185659  0.4110503571234403  0.2499997696586092
  0.5827135751962726  0.7431495563732530  0.2499992391169684
  0.4632087158695817  0.6804724087645192  0.2499998938295835
  0.6280167905889138  0.6672432974623400  0.2500133142516775
  0.6281567453156798  0.5322247712014353  0.2500024292389814
 
  0.00000000E+00  0.00000000E+00  0.00000000E+00
  0.00000000E+00  0.00000000E+00  0.00000000E+00
  0.00000000E+00  0.00000000E+00  0.00000000E+00
  0.00000000E+00  0.00000000E+00  0.00000000E+00
  0.00000000E+00  0.00000000E+00  0.00000000E+00
  0.00000000E+00  0.00000000E+00  0.00000000E+00
  0.00000000E+00  0.00000000E+00  0.00000000E+00
  0.00000000E+00  0.00000000E+00  0.00000000E+00
  0.00000000E+00  0.00000000E+00  0.00000000E+00
  0.00000000E+00  0.00000000E+00  0.00000000E+00
  0.00000000E+00  0.00000000E+00  0.00000000E+00
  0.00000000E+00  0.00000000E+00  0.00000000E+00
  0.00000000E+00  0.00000000E+00  0.00000000E+00
  0.00000000E+00  0.00000000E+00  0.00000000E+00
  0.00000000E+00  0.00000000E+00  0.00000000E+00
  0.00000000E+00  0.00000000E+00  0.00000000E+00
  0.00000000E+00  0.00000000E+00  0.00000000E+00
  0.00000000E+00  0.00000000E+00  0.00000000E+00
  0.00000000E+00  0.00000000E+00  0.00000000E+00
  0.00000000E+00  0.00000000E+00  0.00000000E+00
  0.00000000E+00  0.00000000E+00  0.00000000E+00
  0.00000000E+00  0.00000000E+00  0.00000000E+00
  0.00000000E+00  0.00000000E+00  0.00000000E+00
  0.00000000E+00  0.00000000E+00  0.00000000E+00
  0.00000000E+00  0.00000000E+00  0.00000000E+00
  0.00000000E+00  0.00000000E+00  0.00000000E+00
  0.00000000E+00  0.00000000E+00  0.00000000E+00
  0.00000000E+00  0.00000000E+00  0.00000000E+00
  0.00000000E+00  0.00000000E+00  0.00000000E+00
  0.00000000E+00  0.00000000E+00  0.00000000E+00
  0.00000000E+00  0.00000000E+00  0.00000000E+00
  0.00000000E+00  0.00000000E+00  0.00000000E+00
  0.00000000E+00  0.00000000E+00  0.00000000E+00
  0.00000000E+00  0.00000000E+00  0.00000000E+00
  0.00000000E+00  0.00000000E+00  0.00000000E+00
  0.00000000E+00  0.00000000E+00  0.00000000E+00
  0.00000000E+00  0.00000000E+00  0.00000000E+00
  0.00000000E+00  0.00000000E+00  0.00000000E+00
  0.00000000E+00  0.00000000E+00  0.00000000E+00
  0.00000000E+00  0.00000000E+00  0.00000000E+00
  0.00000000E+00  0.00000000E+00  0.00000000E+00
  0.00000000E+00  0.00000000E+00  0.00000000E+00
  0.00000000E+00  0.00000000E+00  0.00000000E+00
  0.00000000E+00  0.00000000E+00  0.00000000E+00
  0.00000000E+00  0.00000000E+00  0.00000000E+00
  0.00000000E+00  0.00000000E+00  0.00000000E+00
  0.00000000E+00  0.00000000E+00  0.00000000E+00
  0.00000000E+00  0.00000000E+00  0.00000000E+00
  0.00000000E+00  0.00000000E+00  0.00000000E+00
  0.00000000E+00  0.00000000E+00  0.00000000E+00
  0.00000000E+00  0.00000000E+00  0.00000000E+00
  0.00000000E+00  0.00000000E+00  0.00000000E+00
  0.00000000E+00  0.00000000E+00  0.00000000E+00
  0.00000000E+00  0.00000000E+00  0.00000000E+00
  0.00000000E+00  0.00000000E+00  0.00000000E+00
  0.00000000E+00  0.00000000E+00  0.00000000E+00
  0.00000000E+00  0.00000000E+00  0.00000000E+00
  0.00000000E+00  0.00000000E+00  0.00000000E+00
  0.00000000E+00  0.00000000E+00  0.00000000E+00
  0.00000000E+00  0.00000000E+00  0.00000000E+00
  0.00000000E+00  0.00000000E+00  0.00000000E+00
  0.00000000E+00  0.00000000E+00  0.00000000E+00
  0.00000000E+00  0.00000000E+00  0.00000000E+00
  0.00000000E+00  0.00000000E+00  0.00000000E+00
  0.00000000E+00  0.00000000E+00  0.00000000E+00
  0.00000000E+00  0.00000000E+00  0.00000000E+00
  0.00000000E+00  0.00000000E+00  0.00000000E+00
  0.00000000E+00  0.00000000E+00  0.00000000E+00
  0.00000000E+00  0.00000000E+00  0.00000000E+00
  0.00000000E+00  0.00000000E+00  0.00000000E+00
  0.00000000E+00  0.00000000E+00  0.00000000E+00
  0.00000000E+00  0.00000000E+00  0.00000000E+00
  0.00000000E+00  0.00000000E+00  0.00000000E+00
  0.00000000E+00  0.00000000E+00  0.00000000E+00
  0.00000000E+00  0.00000000E+00  0.00000000E+00
  0.00000000E+00  0.00000000E+00  0.00000000E+00
  0.00000000E+00  0.00000000E+00  0.00000000E+00
  0.00000000E+00  0.00000000E+00  0.00000000E+00
  0.00000000E+00  0.00000000E+00  0.00000000E+00
  0.00000000E+00  0.00000000E+00  0.00000000E+00
  0.00000000E+00  0.00000000E+00  0.00000000E+00
  0.00000000E+00  0.00000000E+00  0.00000000E+00
  0.00000000E+00  0.00000000E+00  0.00000000E+00
  0.00000000E+00  0.00000000E+00  0.00000000E+00
  0.00000000E+00  0.00000000E+00  0.00000000E+00
  0.00000000E+00  0.00000000E+00  0.00000000E+00
  0.00000000E+00  0.00000000E+00  0.00000000E+00
  0.00000000E+00  0.00000000E+00  0.00000000E+00
  0.00000000E+00  0.00000000E+00  0.00000000E+00
  0.00000000E+00  0.00000000E+00  0.00000000E+00
  0.00000000E+00  0.00000000E+00  0.00000000E+00
  0.00000000E+00  0.00000000E+00  0.00000000E+00
  0.00000000E+00  0.00000000E+00  0.00000000E+00
  0.00000000E+00  0.00000000E+00  0.00000000E+00
  0.00000000E+00  0.00000000E+00  0.00000000E+00
  0.00000000E+00  0.00000000E+00  0.00000000E+00
