C4                                      
    1.000000000000000     
    17.2710380553999983    0.0000000000000000    0.0000000000000000
    -8.6355190276999991   14.9571577057000002    0.0000000000000000
     0.0000000000000000    0.0000000000000000   15.0000000000000000
   C    H    N 
    86     6     2
Direct
 -0.0002636477482424 -0.0001939578203855  0.2499988001064669
 -0.0001910717057375  0.1427058659619528  0.2499988209799652
  0.0001282669116173  0.2857300790275305  0.2499998437037733
  0.0000027825388949  0.4285822583746817  0.2499998004702797
 -0.0001277407877612  0.5713123918270281  0.2500011122329377
  0.0001237980851849  0.7141499343873614  0.2499999568027213
  0.0002054673475350  0.8572791364361753  0.2499986415291499
  0.1433468863321668  0.0008372844139486  0.2499993728504611
  0.1432864647181568  0.1436649581051744  0.2499986806294648
  0.1429815531251729  0.2861971239998650  0.2500002147927274
  0.1431677026333315  0.4294943763810233  0.2500019812743679
  0.1432049061437084  0.5717921897947231  0.2499990424590647
  0.1429697849216123  0.7145586504649326  0.2499974629618451
  0.1429163758892141  0.8576695644378721  0.2499968246625238
  0.2861321281115254  0.0008811892639543  0.2500007687834727
  0.2868339435265895  0.1440663121824875  0.2500024381863662
  0.2870384583067690  0.2883304579480190  0.2499979874892623
  0.2855384716176610  0.4296890508410956  0.2499999028006938
  0.2878833976989211  0.5727277225019921  0.2500001445686020
  0.2858844530867544  0.7154854837567800  0.2499999903869947
  0.2852099761059275  0.8579927218464268  0.2499972434080173
  0.4287554482580704  0.0003783423682830  0.2500008744359787
  0.4299079068187377  0.1439948290981079  0.2500022883820165
  0.4292358494231071  0.2843624036543060  0.2500004183142496
  0.4274450612055474  0.8569871143125246  0.2500008683487779
  0.5709361474454937 -0.0004393345494248  0.2500014167218315
  0.5717683382682789  0.1427188756614560  0.2500007632552527
  0.5756019977714357  0.2887664270544556  0.2500002834321803
  0.5696299500237102  0.8552626495381979  0.2500010154139800
  0.7130242268020399 -0.0016012160470197  0.2500013897430690
  0.7142998300050207  0.1420630132026671  0.2500002119628842
  0.7148686921411095  0.2848334538840602  0.2500008266743471
  0.7108001648926917  0.4241607707120966  0.2500010363053700
  0.7156046385471012  0.5708932840160591  0.2500005667670406
  0.7163119313006239  0.7137523718344347  0.2499983017264162
  0.7115612933178258  0.8552226330590377  0.2500000732533506
  0.8563008086972440 -0.0008949085235439  0.2500004638162321
  0.8567381870533874  0.1421364677219433  0.2500012992051799
  0.8572500598250403  0.2851701733097732  0.2500001072950327
  0.8569740972705272  0.4279764049759088  0.2500001685859348
  0.8563048382171726  0.5702692773929436  0.2500019192864013
  0.8577245165031216  0.7138685404625932  0.2500006839747999
  0.8565384465461571  0.8561364642184863  0.2499992934226564
  0.0477774942876732  0.0953961978597812  0.2499983425010475
  0.0474441457029490  0.2379569885701182  0.2499997149979549
  0.0475843868643364  0.3811966700086936  0.2500008609242220
  0.0478157686336639  0.5239487550397223  0.2499997734831569
  0.0476476988543485  0.6667037731927126  0.2499996216470683
  0.0475737532794602  0.8095585229534582  0.2499983440528480
  0.0477845096382365  0.9525227459002820  0.2499988526082201
  0.1911421603146718  0.0960028690747152  0.2500006860571907
  0.1909262854795419  0.2390288361778815  0.2499981424886383
  0.1899192736045740  0.3814051542865923  0.2500025045699031
  0.1914276098625244  0.5249395272021604  0.2500002338677042
  0.1905378047055995  0.6672029892344959  0.2499981658937587
  0.1902987699909811  0.8100288299900327  0.2499961233917413
  0.1909017123265945  0.9530521724574771  0.2499986457800589
  0.3344644874701379  0.0965481537470887  0.2500026074316349
  0.3357757144757159  0.2396697477680210  0.2500008716912234
  0.3312315426474749  0.3812882773659898  0.2499971201239183
  0.3321791120124381  0.5242294984561110  0.2499979342280217
  0.3367766427856374  0.6709044979944679  0.2500005320195504
  0.3326904888144255  0.8103128100440045  0.2499989916696699
  0.3332731169783027  0.9530560861276489  0.2499991941791783
  0.4767208611344582  0.0955310001741467  0.2500015043702208
  0.4778119377622177  0.2396559942363908  0.2500006389479320
  0.4719182766694103  0.8062316557846755  0.2500003266981116
  0.4758799784030115  0.9524049508884934  0.2500013983481055
  0.6188415046283132  0.0947165126495772  0.2500006731448757
  0.6201400282196582  0.2380960881571788  0.2500006089219814
  0.6181302735216527  0.8104900256027284  0.2500005424038723
  0.6175618497890701  0.9509308371274363  0.2500011866856847
  0.7614343736283270  0.0941918824456767  0.2500011865677397
  0.7623030208806398  0.2371381730500697  0.2500004824074638
  0.7616347601297507  0.3796182479690110  0.2500008434164843
  0.7598755941905225  0.5223534421289726  0.2500014847288777
  0.7620677311030547  0.6654473760207621  0.2500000539815622
  0.7604249837371663  0.8066750050404674  0.2499986823513330
  0.7606022052771746  0.9508490195501128  0.2500010627800506
  0.9042332854411275  0.0942899028946542  0.2500000997644832
  0.9047438866680708  0.2376116724037806  0.2500010115955889
  0.9046131335780500  0.3807090217473089  0.2499995569065857
  0.9044856400780125  0.5234131704049915  0.2500008642632309
  0.9044994875400723  0.6657792318148921  0.2500015049346427
  0.9046417240645329  0.8090829834863361  0.2500002047159970
  0.9041956802465183  0.9515140191740300  0.2499996758006515
  0.4683814878787410  0.3569957009991704  0.2499994978787378
  0.4039857868892890  0.4197799267351750  0.2499983413090606
  0.4050842246938708  0.5607295322759123  0.2499992441109716
  0.6435572995820359  0.6752496833629553  0.2499973982350764
  0.6426970858632000  0.5343974971332123  0.2499998583682607
  0.5789677975345400  0.7378713067250022  0.2499999183105309
  0.4267908655407796  0.7158627938374998  0.2500010006029814
  0.6207495410257884  0.3791776971404519  0.2500005824400554
 
  0.00000000E+00  0.00000000E+00  0.00000000E+00
  0.00000000E+00  0.00000000E+00  0.00000000E+00
  0.00000000E+00  0.00000000E+00  0.00000000E+00
  0.00000000E+00  0.00000000E+00  0.00000000E+00
  0.00000000E+00  0.00000000E+00  0.00000000E+00
  0.00000000E+00  0.00000000E+00  0.00000000E+00
  0.00000000E+00  0.00000000E+00  0.00000000E+00
  0.00000000E+00  0.00000000E+00  0.00000000E+00
  0.00000000E+00  0.00000000E+00  0.00000000E+00
  0.00000000E+00  0.00000000E+00  0.00000000E+00
  0.00000000E+00  0.00000000E+00  0.00000000E+00
  0.00000000E+00  0.00000000E+00  0.00000000E+00
  0.00000000E+00  0.00000000E+00  0.00000000E+00
  0.00000000E+00  0.00000000E+00  0.00000000E+00
  0.00000000E+00  0.00000000E+00  0.00000000E+00
  0.00000000E+00  0.00000000E+00  0.00000000E+00
  0.00000000E+00  0.00000000E+00  0.00000000E+00
  0.00000000E+00  0.00000000E+00  0.00000000E+00
  0.00000000E+00  0.00000000E+00  0.00000000E+00
  0.00000000E+00  0.00000000E+00  0.00000000E+00
  0.00000000E+00  0.00000000E+00  0.00000000E+00
  0.00000000E+00  0.00000000E+00  0.00000000E+00
  0.00000000E+00  0.00000000E+00  0.00000000E+00
  0.00000000E+00  0.00000000E+00  0.00000000E+00
  0.00000000E+00  0.00000000E+00  0.00000000E+00
  0.00000000E+00  0.00000000E+00  0.00000000E+00
  0.00000000E+00  0.00000000E+00  0.00000000E+00
  0.00000000E+00  0.00000000E+00  0.00000000E+00
  0.00000000E+00  0.00000000E+00  0.00000000E+00
  0.00000000E+00  0.00000000E+00  0.00000000E+00
  0.00000000E+00  0.00000000E+00  0.00000000E+00
  0.00000000E+00  0.00000000E+00  0.00000000E+00
  0.00000000E+00  0.00000000E+00  0.00000000E+00
  0.00000000E+00  0.00000000E+00  0.00000000E+00
  0.00000000E+00  0.00000000E+00  0.00000000E+00
  0.00000000E+00  0.00000000E+00  0.00000000E+00
  0.00000000E+00  0.00000000E+00  0.00000000E+00
  0.00000000E+00  0.00000000E+00  0.00000000E+00
  0.00000000E+00  0.00000000E+00  0.00000000E+00
  0.00000000E+00  0.00000000E+00  0.00000000E+00
  0.00000000E+00  0.00000000E+00  0.00000000E+00
  0.00000000E+00  0.00000000E+00  0.00000000E+00
  0.00000000E+00  0.00000000E+00  0.00000000E+00
  0.00000000E+00  0.00000000E+00  0.00000000E+00
  0.00000000E+00  0.00000000E+00  0.00000000E+00
  0.00000000E+00  0.00000000E+00  0.00000000E+00
  0.00000000E+00  0.00000000E+00  0.00000000E+00
  0.00000000E+00  0.00000000E+00  0.00000000E+00
  0.00000000E+00  0.00000000E+00  0.00000000E+00
  0.00000000E+00  0.00000000E+00  0.00000000E+00
  0.00000000E+00  0.00000000E+00  0.00000000E+00
  0.00000000E+00  0.00000000E+00  0.00000000E+00
  0.00000000E+00  0.00000000E+00  0.00000000E+00
  0.00000000E+00  0.00000000E+00  0.00000000E+00
  0.00000000E+00  0.00000000E+00  0.00000000E+00
  0.00000000E+00  0.00000000E+00  0.00000000E+00
  0.00000000E+00  0.00000000E+00  0.00000000E+00
  0.00000000E+00  0.00000000E+00  0.00000000E+00
  0.00000000E+00  0.00000000E+00  0.00000000E+00
  0.00000000E+00  0.00000000E+00  0.00000000E+00
  0.00000000E+00  0.00000000E+00  0.00000000E+00
  0.00000000E+00  0.00000000E+00  0.00000000E+00
  0.00000000E+00  0.00000000E+00  0.00000000E+00
  0.00000000E+00  0.00000000E+00  0.00000000E+00
  0.00000000E+00  0.00000000E+00  0.00000000E+00
  0.00000000E+00  0.00000000E+00  0.00000000E+00
  0.00000000E+00  0.00000000E+00  0.00000000E+00
  0.00000000E+00  0.00000000E+00  0.00000000E+00
  0.00000000E+00  0.00000000E+00  0.00000000E+00
  0.00000000E+00  0.00000000E+00  0.00000000E+00
  0.00000000E+00  0.00000000E+00  0.00000000E+00
  0.00000000E+00  0.00000000E+00  0.00000000E+00
  0.00000000E+00  0.00000000E+00  0.00000000E+00
  0.00000000E+00  0.00000000E+00  0.00000000E+00
  0.00000000E+00  0.00000000E+00  0.00000000E+00
  0.00000000E+00  0.00000000E+00  0.00000000E+00
  0.00000000E+00  0.00000000E+00  0.00000000E+00
  0.00000000E+00  0.00000000E+00  0.00000000E+00
  0.00000000E+00  0.00000000E+00  0.00000000E+00
  0.00000000E+00  0.00000000E+00  0.00000000E+00
  0.00000000E+00  0.00000000E+00  0.00000000E+00
  0.00000000E+00  0.00000000E+00  0.00000000E+00
  0.00000000E+00  0.00000000E+00  0.00000000E+00
  0.00000000E+00  0.00000000E+00  0.00000000E+00
  0.00000000E+00  0.00000000E+00  0.00000000E+00
  0.00000000E+00  0.00000000E+00  0.00000000E+00
  0.00000000E+00  0.00000000E+00  0.00000000E+00
  0.00000000E+00  0.00000000E+00  0.00000000E+00
  0.00000000E+00  0.00000000E+00  0.00000000E+00
  0.00000000E+00  0.00000000E+00  0.00000000E+00
  0.00000000E+00  0.00000000E+00  0.00000000E+00
  0.00000000E+00  0.00000000E+00  0.00000000E+00
  0.00000000E+00  0.00000000E+00  0.00000000E+00
  0.00000000E+00  0.00000000E+00  0.00000000E+00
