C4                                      
    1.000000000000000     
    17.2710380553999983    0.0000000000000000    0.0000000000000000
    -8.6355190276999991   14.9571577057000002    0.0000000000000000
     0.0000000000000000    0.0000000000000000   15.0000000000000000
   C    F    N 
    86     6     2
Direct
 -0.0003206523489769 -0.0006833861357696  0.2500031192896581
 -0.0006220841159535  0.1419657820836115  0.2500041345884472
 -0.0007898064351772  0.2852878564370218  0.2500034973759819
 -0.0007219202603379  0.4287866282424835  0.2500021162261266
 -0.0003498022984589  0.5717106012690559  0.2500003380847912
 -0.0000571917549323  0.7142245239769249  0.2500016781245574
 -0.0001029135989895  0.8571097855813898  0.2500009379523065
  0.1434651523406864  0.0002930767187110  0.2499985732684067
  0.1426034743727953  0.1423126648380807  0.2500007158932791
  0.1399078823802180  0.2833775528691046  0.2500036840025125
  0.1398360452000603  0.4280213729208893  0.2499999781318061
  0.1425389038557208  0.5718156528178469  0.2499964906851365
  0.1434184197934395  0.7146529594482044  0.2500003307907421
  0.1430456836795832  0.8572527112094824  0.2500004793320427
  0.2861232712378627  0.0000685735142282  0.2500051752216429
  0.2871242082100015  0.1433677790718173  0.2499997424336487
  0.2849851149048872  0.2856233385534926  0.2500007692846571
  0.2768706149800091  0.4242671175366903  0.2499965245636568
  0.2848836496766565  0.5709892103206208  0.2499982883814648
  0.2870633070039619  0.7154042749267947  0.2500020612450340
  0.2860910503562530  0.8576463724045633  0.2500023830977823
  0.4291547194370770  0.0004118449321618  0.2500030677037128
  0.4299645669371362  0.1419060337209808  0.2500081157778922
  0.4297138039840294  0.2798428403745163  0.2499873532114202
  0.4295862857370717  0.7215167190629829  0.2500021237743710
  0.4299116597768070  0.8597045055904602  0.2500022360371799
  0.5724895102989277  0.0014595409176944  0.2500000052067911
  0.5725058436456596  0.1426634330315462  0.2500014683662690
  0.5766818870312519  0.2874116047264098  0.2500025686041658
  0.5766536819944242  0.8609410959806295  0.2500012086776136
  0.7158081446994962  0.0021177655010553  0.2499997345689700
  0.7154566792549064  0.1434914267639107  0.2499989758125278
  0.7157496019072330  0.2851833983718302  0.2500025232906908
  0.7118297676959244  0.4236519497580521  0.2500028230375808
  0.7161647095659432  0.5716398455202577  0.2499866187790415
  0.7161550133500189  0.7160628164304148  0.2499998001012523
  0.7117863461287566  0.8597441319779573  0.2500001826236194
  0.8575176643912347  0.0003864324007233  0.2500015653424570
  0.8576973308003820  0.1432032485385603  0.2499999746772162
  0.8576436618071464  0.2858427614594186  0.2500009847687794
  0.8574207326813152  0.4285385091718660  0.2500016588573169
  0.8559235907728050  0.5707179750047573  0.2500028502806855
  0.8571784926640480  0.7143170084852944  0.2500020714902207
  0.8558632956426939  0.8566497569083094  0.2500012967139398
  0.0473412814007010  0.0946022357722271  0.2499983598787910
  0.0455886068139202  0.2364877390208154  0.2500060862881975
  0.0455129584853688  0.3804928272429852  0.2500040409403298
  0.0472839332117096  0.5241207136617795  0.2500000246042978
  0.0478107765277233  0.6669601965994140  0.2500013464157417
  0.0475047906620032  0.8094622398310523  0.2500004812828843
  0.0478185028449413  0.9522311594934817  0.2500004022491112
  0.1912526023643232  0.0953544615598306  0.2500070773052717
  0.1890449124858961  0.2371119829128785  0.2500047592782828
  0.1837801677967382  0.3776647400447941  0.2500012168420589
  0.1889542083594373  0.5234743812530618  0.2499997421840063
  0.1912012633337835  0.6674302174627336  0.2499997620538778
  0.1908840944436471  0.8099309398444161  0.2500010716846860
  0.1909076549960321  0.9524370884938496  0.2500028205716947
  0.3344642309701662  0.0954488271065206  0.2500069564784564
  0.3357103074121928  0.2390895326748621  0.2499990229398324
  0.3234545174346634  0.3776224958220504  0.2500046341576954
  0.3232837652994858  0.5174558116169659  0.2499988979122523
  0.3356112611561707  0.6682655826501968  0.2500021364480158
  0.3343949591928451  0.8106624820716749  0.2500023547618642
  0.3336961657537199  0.9526306511536773  0.2500034159974335
  0.4773856345379378  0.0948214611336105  0.2500046774545543
  0.4788866733981067  0.2362321874745663  0.2500035998757090
  0.4788493544051093  0.8143101741730560  0.2500013048712723
  0.4773488799417325  0.9541920642856832  0.2500015900469041
  0.6202369527262480  0.0959296731162178  0.2499995163189772
  0.6211755444525566  0.2374951788453959  0.2500021540086284
  0.6211986836624394  0.9553177838691075  0.2500005289789519
  0.7631467743187569  0.0966065597904520  0.2499991784127726
  0.7631297485223004  0.2380366382423691  0.2500008472734213
  0.7627871198222915  0.3798502658333527  0.2500019522877058
  0.7595810561961244  0.5217410992695318  0.2500009128102584
  0.7614793824159102  0.6664843005671902  0.2499978853904505
  0.7595468370925537  0.8093794240781172  0.2500008083427100
  0.7628625260801009  0.9544794148443759  0.2500010399053780
  0.9047083618475613  0.0949345242684915  0.2500018269708995
  0.9047388765639979  0.2380608832591994  0.2500001548961582
  0.9045894282126913  0.3811273992887581  0.2500016273178937
  0.9043063783280126  0.5238968518802597  0.2500016197137035
  0.9041885717914306  0.6661470175578950  0.2500020114904998
  0.9041117829547847  0.8094692820897427  0.2500025041828989
  0.9043289826046954  0.9518403818584731  0.2500017839610722
  0.4845040700943193  0.3672921389851654  0.2499561438869027
  0.4112352417316834  0.4300018437722162  0.2500026543595441
  0.4110322939335605  0.5527905241342776  0.2499994049638376
  0.6265077521865371  0.6693510071877505  0.2499904379926585
  0.6265534071887595  0.5289316858293637  0.2499437646802008
  0.4842707729138818  0.6887555969551501  0.2499989832099163
  0.6228379603063594  0.3774168509977311  0.2500067811782885
  0.6227871650854013  0.8170406728333024  0.2499994692656569
 
  0.00000000E+00  0.00000000E+00  0.00000000E+00
  0.00000000E+00  0.00000000E+00  0.00000000E+00
  0.00000000E+00  0.00000000E+00  0.00000000E+00
  0.00000000E+00  0.00000000E+00  0.00000000E+00
  0.00000000E+00  0.00000000E+00  0.00000000E+00
  0.00000000E+00  0.00000000E+00  0.00000000E+00
  0.00000000E+00  0.00000000E+00  0.00000000E+00
  0.00000000E+00  0.00000000E+00  0.00000000E+00
  0.00000000E+00  0.00000000E+00  0.00000000E+00
  0.00000000E+00  0.00000000E+00  0.00000000E+00
  0.00000000E+00  0.00000000E+00  0.00000000E+00
  0.00000000E+00  0.00000000E+00  0.00000000E+00
  0.00000000E+00  0.00000000E+00  0.00000000E+00
  0.00000000E+00  0.00000000E+00  0.00000000E+00
  0.00000000E+00  0.00000000E+00  0.00000000E+00
  0.00000000E+00  0.00000000E+00  0.00000000E+00
  0.00000000E+00  0.00000000E+00  0.00000000E+00
  0.00000000E+00  0.00000000E+00  0.00000000E+00
  0.00000000E+00  0.00000000E+00  0.00000000E+00
  0.00000000E+00  0.00000000E+00  0.00000000E+00
  0.00000000E+00  0.00000000E+00  0.00000000E+00
  0.00000000E+00  0.00000000E+00  0.00000000E+00
  0.00000000E+00  0.00000000E+00  0.00000000E+00
  0.00000000E+00  0.00000000E+00  0.00000000E+00
  0.00000000E+00  0.00000000E+00  0.00000000E+00
  0.00000000E+00  0.00000000E+00  0.00000000E+00
  0.00000000E+00  0.00000000E+00  0.00000000E+00
  0.00000000E+00  0.00000000E+00  0.00000000E+00
  0.00000000E+00  0.00000000E+00  0.00000000E+00
  0.00000000E+00  0.00000000E+00  0.00000000E+00
  0.00000000E+00  0.00000000E+00  0.00000000E+00
  0.00000000E+00  0.00000000E+00  0.00000000E+00
  0.00000000E+00  0.00000000E+00  0.00000000E+00
  0.00000000E+00  0.00000000E+00  0.00000000E+00
  0.00000000E+00  0.00000000E+00  0.00000000E+00
  0.00000000E+00  0.00000000E+00  0.00000000E+00
  0.00000000E+00  0.00000000E+00  0.00000000E+00
  0.00000000E+00  0.00000000E+00  0.00000000E+00
  0.00000000E+00  0.00000000E+00  0.00000000E+00
  0.00000000E+00  0.00000000E+00  0.00000000E+00
  0.00000000E+00  0.00000000E+00  0.00000000E+00
  0.00000000E+00  0.00000000E+00  0.00000000E+00
  0.00000000E+00  0.00000000E+00  0.00000000E+00
  0.00000000E+00  0.00000000E+00  0.00000000E+00
  0.00000000E+00  0.00000000E+00  0.00000000E+00
  0.00000000E+00  0.00000000E+00  0.00000000E+00
  0.00000000E+00  0.00000000E+00  0.00000000E+00
  0.00000000E+00  0.00000000E+00  0.00000000E+00
  0.00000000E+00  0.00000000E+00  0.00000000E+00
  0.00000000E+00  0.00000000E+00  0.00000000E+00
  0.00000000E+00  0.00000000E+00  0.00000000E+00
  0.00000000E+00  0.00000000E+00  0.00000000E+00
  0.00000000E+00  0.00000000E+00  0.00000000E+00
  0.00000000E+00  0.00000000E+00  0.00000000E+00
  0.00000000E+00  0.00000000E+00  0.00000000E+00
  0.00000000E+00  0.00000000E+00  0.00000000E+00
  0.00000000E+00  0.00000000E+00  0.00000000E+00
  0.00000000E+00  0.00000000E+00  0.00000000E+00
  0.00000000E+00  0.00000000E+00  0.00000000E+00
  0.00000000E+00  0.00000000E+00  0.00000000E+00
  0.00000000E+00  0.00000000E+00  0.00000000E+00
  0.00000000E+00  0.00000000E+00  0.00000000E+00
  0.00000000E+00  0.00000000E+00  0.00000000E+00
  0.00000000E+00  0.00000000E+00  0.00000000E+00
  0.00000000E+00  0.00000000E+00  0.00000000E+00
  0.00000000E+00  0.00000000E+00  0.00000000E+00
  0.00000000E+00  0.00000000E+00  0.00000000E+00
  0.00000000E+00  0.00000000E+00  0.00000000E+00
  0.00000000E+00  0.00000000E+00  0.00000000E+00
  0.00000000E+00  0.00000000E+00  0.00000000E+00
  0.00000000E+00  0.00000000E+00  0.00000000E+00
  0.00000000E+00  0.00000000E+00  0.00000000E+00
  0.00000000E+00  0.00000000E+00  0.00000000E+00
  0.00000000E+00  0.00000000E+00  0.00000000E+00
  0.00000000E+00  0.00000000E+00  0.00000000E+00
  0.00000000E+00  0.00000000E+00  0.00000000E+00
  0.00000000E+00  0.00000000E+00  0.00000000E+00
  0.00000000E+00  0.00000000E+00  0.00000000E+00
  0.00000000E+00  0.00000000E+00  0.00000000E+00
  0.00000000E+00  0.00000000E+00  0.00000000E+00
  0.00000000E+00  0.00000000E+00  0.00000000E+00
  0.00000000E+00  0.00000000E+00  0.00000000E+00
  0.00000000E+00  0.00000000E+00  0.00000000E+00
  0.00000000E+00  0.00000000E+00  0.00000000E+00
  0.00000000E+00  0.00000000E+00  0.00000000E+00
  0.00000000E+00  0.00000000E+00  0.00000000E+00
  0.00000000E+00  0.00000000E+00  0.00000000E+00
  0.00000000E+00  0.00000000E+00  0.00000000E+00
  0.00000000E+00  0.00000000E+00  0.00000000E+00
  0.00000000E+00  0.00000000E+00  0.00000000E+00
  0.00000000E+00  0.00000000E+00  0.00000000E+00
  0.00000000E+00  0.00000000E+00  0.00000000E+00
  0.00000000E+00  0.00000000E+00  0.00000000E+00
  0.00000000E+00  0.00000000E+00  0.00000000E+00
