C4                                      
    1.000000000000000     
    17.2710380553999983    0.0000000000000000    0.0000000000000000
    -8.6355190276999991   14.9571577057000002    0.0000000000000000
     0.0000000000000000    0.0000000000000000   15.0000000000000000
   C    H    F 
    88     4     4
Direct
 -0.0003968819352839 -0.0002398027241074  0.2467383716154143
 -0.0008386780250328  0.1424242762182801  0.2490611463345359
 -0.0009565421228381  0.2852353961870438  0.2496769489115729
 -0.0008289524798291  0.4282201611177135  0.2503393105633425
 -0.0003844725072638  0.5713391331816710  0.2526337692320720
  0.0003633822742372  0.7144036004855429  0.2512706061451157
  0.0003645930264221  0.8574224465339714  0.2486906326786115
  0.1427377790196917  0.0000797805817001  0.2507132008573635
  0.1423484680900585  0.1428085762225730  0.2514896245632418
  0.1415947225965358  0.2849335930276712  0.2503564051933941
  0.1415596793832727  0.4280206225237794  0.2487653150293110
  0.1423012731097620  0.5710072436934466  0.2479138386702903
  0.1426392035684689  0.7140826045171501  0.2494358819646117
  0.1428182569416319  0.8571452931367449  0.2503206571406554
  0.2852333782268925 -0.0004403596876387  0.2532627951714497
  0.2851180512454123  0.1423156378786420  0.2567259415056068
  0.2855538982779949  0.2867850064489139  0.2544207817261671
  0.2835101275258075  0.4274615015582398  0.2494363819478990
  0.2854771675846308  0.5701413236948291  0.2450560060889698
  0.2850615418578019  0.7142706884182349  0.2437730054655629
  0.2852144856966318  0.8570690277833617  0.2483046177940672
  0.4281538518567703 -0.0002430106391533  0.2512354779585053
  0.4279458942123999  0.1419805658929407  0.2621370613921438
  0.4262095497384062  0.2817020869270856  0.2667589539446628
  0.4261184895419318  0.7159607152912048  0.2332722793224637
  0.4278802449106149  0.8573736895904949  0.2394883536292309
  0.5708262853557432  0.0000145042166886  0.2463901331871523
  0.5708072665192211  0.1421805290481485  0.2558368753402350
  0.5714087095103008  0.2840860808167626  0.2749526233778787
  0.5712928896349281  0.8588154153311353  0.2256772630832641
  0.7138403946321253  0.0002443312134508  0.2435578141173937
  0.7138308544095121  0.1426795985161225  0.2507509164450715
  0.7138535076651199  0.2851385524310790  0.2573105836577274
  0.7140366703197532  0.4274937133020072  0.2682353940355267
  0.7187779970497461  0.5734512036545345  0.2468159376765522
  0.7186846360586785  0.7169201607232133  0.2520473188417807
  0.7138552472116584  0.8580574988848197  0.2310580257655663
  0.8565695523612826 -0.0001951949635642  0.2458947968517329
  0.8564705206537173  0.1425819903528563  0.2491790253689024
  0.8564160620190164  0.2853060355095008  0.2509564062111068
  0.8565945483660341  0.4282458879396355  0.2537251282885697
  0.8572805874896344  0.5717696279253653  0.2581313689013416
  0.8585800324439374  0.7151005315463936  0.2498823685296676
  0.8571919297353915  0.8570133394292350  0.2412470693117043
  0.0471597389428552  0.0950870184857453  0.2490568745413911
  0.0462976507736300  0.2373228195706144  0.2496395519655376
  0.0462868020115433  0.3804030227317491  0.2496135564046720
  0.0471252387769604  0.5235671756131545  0.2502361717399197
  0.0474888611246937  0.6665980487531828  0.2515675748402718
  0.0476835704510327  0.8095803472307642  0.2500962826220743
  0.0475263997144695  0.9523848624444959  0.2482219730163321
  0.1899928061484985  0.0949088974710109  0.2526749142655301
  0.1896516481910417  0.2379083362718794  0.2521640100152640
  0.1881846444097038  0.3797664768924999  0.2495159169555897
  0.1895749494548285  0.5231571951887791  0.2471999090484845
  0.1899013187938659  0.6665339756023799  0.2472837194252419
  0.1902713771810312  0.8094884439647078  0.2494962204742533
  0.1902916861188917  0.9522402519522284  0.2513387495601464
  0.3328795497944667  0.0948738640540294  0.2574845145164805
  0.3335619932429144  0.2375066950964714  0.2591142185568184
  0.3297130634466802  0.3795669790431111  0.2520787060987956
  0.3297215604038282  0.5215490177208486  0.2468441506320397
  0.3334681166086442  0.6674883522407880  0.2409410048946799
  0.3328433969735410  0.8094260599311768  0.2439265302557065
  0.3327685896055945  0.9520508619190339  0.2509458799394383
  0.4756830550318579  0.0945641929583824  0.2571309610233707
  0.4749014988611214  0.2368755673787815  0.2705150341747882
  0.4747969666046921  0.8094838239159291  0.2303000325628985
  0.4756991550768673  0.9525005445430650  0.2451512478705240
  0.6184447450747768  0.0949307221082532  0.2510714726296970
  0.6187866651345348  0.2373528416464576  0.2610359036244757
  0.6235032347237999  0.3764467803780688  0.2900780421691149
  0.6233422104581569  0.8187419563199339  0.2092332396263296
  0.6187748782922077  0.9528409065087123  0.2404097687603415
  0.7614497039253160  0.0953097737627282  0.2481570286766482
  0.7614162206768718  0.2376601097354040  0.2527860633138962
  0.7614367831795799  0.3801379298911663  0.2575215365520263
  0.7612649812878218  0.5238489906924909  0.2603862640269262
  0.7633786362304948  0.6675273945323635  0.2496983537691739
  0.7611656423570415  0.8089565764598602  0.2386290791570289
  0.7613648103610606  0.9527561651187436  0.2424644030257818
  0.9039147410169001  0.0946740583182138  0.2484358689157531
  0.9039198348410226  0.2376960150967185  0.2499171637973857
  0.9038980508408652  0.3806406295793179  0.2512469323307699
  0.9044475337872532  0.5237698372923728  0.2559605459425929
  0.9051644775358932  0.6667648864689674  0.2527642183750404
  0.9051496172881855  0.8099756984232227  0.2469835377298813
  0.9044306908911235  0.9521605943950501  0.2433604807892338
  0.4624403360833493  0.3539691695379115  0.2688312968537764
  0.4024802558073268  0.4185927756629521  0.2521688001464487
  0.4024883179857662  0.5553693442889301  0.2466753882501529
  0.4623467528496161  0.6799489237765127  0.2304003083865523
  0.6313568653552373  0.6713059607309576  0.2765439651796776
  0.6317142655056120  0.5316042532825190  0.2213062332886789
  0.5844175185211767  0.4181172322406888  0.3318904897977215
  0.5840589607966781  0.7383113250166656  0.1665794956472126
 
  0.00000000E+00  0.00000000E+00  0.00000000E+00
  0.00000000E+00  0.00000000E+00  0.00000000E+00
  0.00000000E+00  0.00000000E+00  0.00000000E+00
  0.00000000E+00  0.00000000E+00  0.00000000E+00
  0.00000000E+00  0.00000000E+00  0.00000000E+00
  0.00000000E+00  0.00000000E+00  0.00000000E+00
  0.00000000E+00  0.00000000E+00  0.00000000E+00
  0.00000000E+00  0.00000000E+00  0.00000000E+00
  0.00000000E+00  0.00000000E+00  0.00000000E+00
  0.00000000E+00  0.00000000E+00  0.00000000E+00
  0.00000000E+00  0.00000000E+00  0.00000000E+00
  0.00000000E+00  0.00000000E+00  0.00000000E+00
  0.00000000E+00  0.00000000E+00  0.00000000E+00
  0.00000000E+00  0.00000000E+00  0.00000000E+00
  0.00000000E+00  0.00000000E+00  0.00000000E+00
  0.00000000E+00  0.00000000E+00  0.00000000E+00
  0.00000000E+00  0.00000000E+00  0.00000000E+00
  0.00000000E+00  0.00000000E+00  0.00000000E+00
  0.00000000E+00  0.00000000E+00  0.00000000E+00
  0.00000000E+00  0.00000000E+00  0.00000000E+00
  0.00000000E+00  0.00000000E+00  0.00000000E+00
  0.00000000E+00  0.00000000E+00  0.00000000E+00
  0.00000000E+00  0.00000000E+00  0.00000000E+00
  0.00000000E+00  0.00000000E+00  0.00000000E+00
  0.00000000E+00  0.00000000E+00  0.00000000E+00
  0.00000000E+00  0.00000000E+00  0.00000000E+00
  0.00000000E+00  0.00000000E+00  0.00000000E+00
  0.00000000E+00  0.00000000E+00  0.00000000E+00
  0.00000000E+00  0.00000000E+00  0.00000000E+00
  0.00000000E+00  0.00000000E+00  0.00000000E+00
  0.00000000E+00  0.00000000E+00  0.00000000E+00
  0.00000000E+00  0.00000000E+00  0.00000000E+00
  0.00000000E+00  0.00000000E+00  0.00000000E+00
  0.00000000E+00  0.00000000E+00  0.00000000E+00
  0.00000000E+00  0.00000000E+00  0.00000000E+00
  0.00000000E+00  0.00000000E+00  0.00000000E+00
  0.00000000E+00  0.00000000E+00  0.00000000E+00
  0.00000000E+00  0.00000000E+00  0.00000000E+00
  0.00000000E+00  0.00000000E+00  0.00000000E+00
  0.00000000E+00  0.00000000E+00  0.00000000E+00
  0.00000000E+00  0.00000000E+00  0.00000000E+00
  0.00000000E+00  0.00000000E+00  0.00000000E+00
  0.00000000E+00  0.00000000E+00  0.00000000E+00
  0.00000000E+00  0.00000000E+00  0.00000000E+00
  0.00000000E+00  0.00000000E+00  0.00000000E+00
  0.00000000E+00  0.00000000E+00  0.00000000E+00
  0.00000000E+00  0.00000000E+00  0.00000000E+00
  0.00000000E+00  0.00000000E+00  0.00000000E+00
  0.00000000E+00  0.00000000E+00  0.00000000E+00
  0.00000000E+00  0.00000000E+00  0.00000000E+00
  0.00000000E+00  0.00000000E+00  0.00000000E+00
  0.00000000E+00  0.00000000E+00  0.00000000E+00
  0.00000000E+00  0.00000000E+00  0.00000000E+00
  0.00000000E+00  0.00000000E+00  0.00000000E+00
  0.00000000E+00  0.00000000E+00  0.00000000E+00
  0.00000000E+00  0.00000000E+00  0.00000000E+00
  0.00000000E+00  0.00000000E+00  0.00000000E+00
  0.00000000E+00  0.00000000E+00  0.00000000E+00
  0.00000000E+00  0.00000000E+00  0.00000000E+00
  0.00000000E+00  0.00000000E+00  0.00000000E+00
  0.00000000E+00  0.00000000E+00  0.00000000E+00
  0.00000000E+00  0.00000000E+00  0.00000000E+00
  0.00000000E+00  0.00000000E+00  0.00000000E+00
  0.00000000E+00  0.00000000E+00  0.00000000E+00
  0.00000000E+00  0.00000000E+00  0.00000000E+00
  0.00000000E+00  0.00000000E+00  0.00000000E+00
  0.00000000E+00  0.00000000E+00  0.00000000E+00
  0.00000000E+00  0.00000000E+00  0.00000000E+00
  0.00000000E+00  0.00000000E+00  0.00000000E+00
  0.00000000E+00  0.00000000E+00  0.00000000E+00
  0.00000000E+00  0.00000000E+00  0.00000000E+00
  0.00000000E+00  0.00000000E+00  0.00000000E+00
  0.00000000E+00  0.00000000E+00  0.00000000E+00
  0.00000000E+00  0.00000000E+00  0.00000000E+00
  0.00000000E+00  0.00000000E+00  0.00000000E+00
  0.00000000E+00  0.00000000E+00  0.00000000E+00
  0.00000000E+00  0.00000000E+00  0.00000000E+00
  0.00000000E+00  0.00000000E+00  0.00000000E+00
  0.00000000E+00  0.00000000E+00  0.00000000E+00
  0.00000000E+00  0.00000000E+00  0.00000000E+00
  0.00000000E+00  0.00000000E+00  0.00000000E+00
  0.00000000E+00  0.00000000E+00  0.00000000E+00
  0.00000000E+00  0.00000000E+00  0.00000000E+00
  0.00000000E+00  0.00000000E+00  0.00000000E+00
  0.00000000E+00  0.00000000E+00  0.00000000E+00
  0.00000000E+00  0.00000000E+00  0.00000000E+00
  0.00000000E+00  0.00000000E+00  0.00000000E+00
  0.00000000E+00  0.00000000E+00  0.00000000E+00
  0.00000000E+00  0.00000000E+00  0.00000000E+00
  0.00000000E+00  0.00000000E+00  0.00000000E+00
  0.00000000E+00  0.00000000E+00  0.00000000E+00
  0.00000000E+00  0.00000000E+00  0.00000000E+00
  0.00000000E+00  0.00000000E+00  0.00000000E+00
  0.00000000E+00  0.00000000E+00  0.00000000E+00
  0.00000000E+00  0.00000000E+00  0.00000000E+00
  0.00000000E+00  0.00000000E+00  0.00000000E+00
