C4                                      
    1.000000000000000     
    17.2710380553999983    0.0000000000000000    0.0000000000000000
    -8.6355190276999991   14.9571577057000002    0.0000000000000000
     0.0000000000000000    0.0000000000000000   15.0000000000000000
   C    H    F 
    88     6     2
Direct
  0.0003596975939565  0.0000928099991369  0.2499976277569929
 -0.0006906941810090  0.1425347211093360  0.2499996931679273
 -0.0012550569794728  0.2851684938320634  0.2500024774972344
 -0.0008115968859495  0.4282907757440485  0.2500000338011081
  0.0001061665686331  0.5714704965801638  0.2500002011533843
  0.0016452643761097  0.7148363205535286  0.2500023559434669
  0.0018345432354063  0.8580593950309165  0.2499991242305592
  0.1430391118545775 -0.0003744812327958  0.2499979421560169
  0.1419878868650128  0.1421590095936557  0.2499979449538017
  0.1404741030075941  0.2838840663600902  0.2500009003084046
  0.1409861368254052  0.4273862017312475  0.2499977691572043
  0.1425518450676749  0.5707013606663583  0.2500000134846428
  0.1434495784802050  0.7140023216109608  0.2500018712402988
  0.1437125551753319  0.8570158251620165  0.2500001137342635
  0.2856005588717997 -0.0009304802225375  0.2499990702019246
  0.2841434754687223  0.1408086415591212  0.2499987419912993
  0.2840711535178357  0.2850892986687768  0.2499986960653293
  0.2812467691079462  0.4248583650484853  0.2499997693187252
  0.2853261966539119  0.5687995064919056  0.2499988307558530
  0.2855246028418451  0.7138774715590345  0.2500022566913394
  0.2859433645346915  0.8567545319626551  0.2500004962437162
  0.4286013952920368 -0.0002933478102532  0.2499991949165559
  0.4278206326413937  0.1419314331920417  0.2499988143265648
  0.4236941647735651  0.2800314284885002  0.2499985025837050
  0.4255464216389616  0.7170128621760609  0.2499959713264748
  0.4287091577265864  0.8571575744244152  0.2499997059062087
  0.5715433036055856  0.0003236334286126  0.2499991414336095
  0.5710585947446410  0.1426183719169848  0.2499970619459375
  0.5706952226349797  0.2849724608008344  0.2500032216851562
  0.5733817623987466  0.8579881254722019  0.2499995455461360
  0.7147271350585045  0.0008149563698339  0.2499988464565184
  0.7141078225909836  0.1432646476453296  0.2500005832526066
  0.7138841524905504  0.2859837788605797  0.2499998425503404
  0.7147089628432445  0.4292897360559174  0.2500036427283220
  0.7196352728188953  0.5768029550415295  0.2499974438598061
  0.7195047996898468  0.7173467648764070  0.2499989455671256
  0.7161545927145327  0.8597814180655741  0.2500005072970614
  0.8579654804145157  0.0010147658624070  0.2499978159619495
  0.8567194318088256  0.1430965256250745  0.2499996642208456
  0.8564084083942192  0.2857395354569434  0.2500020263323480
  0.8570040563544140  0.4288176848809774  0.2499995019428009
  0.8580611458026842  0.5725514933774258  0.2500019320586462
  0.8609997132033472  0.7168539831354751  0.2500003643738554
  0.8588713966303654  0.8581769282310053  0.2499984822319852
  0.0472154289939368  0.0950691339574533  0.2499979789137557
  0.0457304750054354  0.2370063752760667  0.2500004314094612
  0.0459487370953168  0.3802043781543960  0.2500000719795674
  0.0473726736539267  0.5235270796681392  0.2500000608342619
  0.0483642047567057  0.6667131340417755  0.2500020434041413
  0.0488500565457827  0.8098721720014892  0.2500004427876346
  0.0482775542650909  0.9525785348432922  0.2499989242781621
  0.1894541816955577  0.0940150015407798  0.2499989799963148
  0.1885826245684726  0.2369176765885007  0.2499985781141590
  0.1866447735960790  0.3782555432393060  0.2499987682748105
  0.1893896360480866  0.5224965620919595  0.2499981856952597
  0.1903981893113910  0.6662103689947003  0.2499981534394306
  0.1910687318172970  0.8092991569427413  0.2500012507894503
  0.1907782904800618  0.9519005993853911  0.2499998725862000
  0.3327489616883488  0.0942464161486551  0.2499986090799031
  0.3313729358480036  0.2353012699569260  0.2499983994470425
  0.3280707341887408  0.3777064759710710  0.2500002429216698
  0.3278952799313261  0.5182965417059340  0.2500007220236704
  0.3328028844565711  0.6658464147821921  0.2500011236879153
  0.3335565313184658  0.8091003145545628  0.2500013397619580
  0.3332954402027442  0.9517471789977784  0.2499995618060711
  0.4759052222240531  0.0947459475810610  0.2499979992831739
  0.4741893561110686  0.2371001493931440  0.2500008130901552
  0.4768614540747612  0.8101623587274356  0.2500009818252390
  0.4763811491231182  0.9524868529735507  0.2500009884214299
  0.6188018595048247  0.0953693132039878  0.2499990014801159
  0.6187407640240928  0.2378856814628871  0.2499979400178579
  0.6220136183756984  0.3781221138544929  0.2500131247236292
  0.6238909556499935  0.8150583270189009  0.2500015916723963
  0.6196774314405921  0.9531803131313444  0.2499987699102055
  0.7618296022268295  0.0959386819875495  0.2499999826513639
  0.7614730346499964  0.2382859454184716  0.2500016995817765
  0.7618996127606036  0.3812057539955397  0.2499995421841502
  0.7621459929756441  0.5263119387825719  0.2500018452751742
  0.7663892153945607  0.6702490581125760  0.2499974300859019
  0.7634083211394912  0.8099353304585351  0.2500000517036468
  0.7633134122611246  0.9542564190138848  0.2499985089225634
  0.9045152731836015  0.0954157944481352  0.2499983340420867
  0.9038303943930986  0.2380246555207973  0.2500021670011046
  0.9040469785164242  0.3810501955239433  0.2500014192159242
  0.9049130152587674  0.5243367219471440  0.2500016186503733
  0.9066118812560483  0.6676852547553607  0.2500020310694623
  0.9070698326332459  0.8112420666475434  0.2499986986681149
  0.9055192467812988  0.9529679425821597  0.2499980515365151
  0.4567266632916018  0.3514992316369982  0.2499975436356889
  0.4007623958275587  0.4174089230358203  0.2500010086412506
  0.3995383029929093  0.5486508466749354  0.2500025097347134
  0.6468163214710121  0.6776097747187112  0.2500005691305317
  0.6480028866799235  0.5465347431956297  0.2499953427655330
  0.5908519335161254  0.7435917109154082  0.2500028151915224
  0.5767716651813217  0.4239769950121047  0.2500320426573406
  0.4708067649743364  0.6711465479994312  0.2499751476421677
 
  0.00000000E+00  0.00000000E+00  0.00000000E+00
  0.00000000E+00  0.00000000E+00  0.00000000E+00
  0.00000000E+00  0.00000000E+00  0.00000000E+00
  0.00000000E+00  0.00000000E+00  0.00000000E+00
  0.00000000E+00  0.00000000E+00  0.00000000E+00
  0.00000000E+00  0.00000000E+00  0.00000000E+00
  0.00000000E+00  0.00000000E+00  0.00000000E+00
  0.00000000E+00  0.00000000E+00  0.00000000E+00
  0.00000000E+00  0.00000000E+00  0.00000000E+00
  0.00000000E+00  0.00000000E+00  0.00000000E+00
  0.00000000E+00  0.00000000E+00  0.00000000E+00
  0.00000000E+00  0.00000000E+00  0.00000000E+00
  0.00000000E+00  0.00000000E+00  0.00000000E+00
  0.00000000E+00  0.00000000E+00  0.00000000E+00
  0.00000000E+00  0.00000000E+00  0.00000000E+00
  0.00000000E+00  0.00000000E+00  0.00000000E+00
  0.00000000E+00  0.00000000E+00  0.00000000E+00
  0.00000000E+00  0.00000000E+00  0.00000000E+00
  0.00000000E+00  0.00000000E+00  0.00000000E+00
  0.00000000E+00  0.00000000E+00  0.00000000E+00
  0.00000000E+00  0.00000000E+00  0.00000000E+00
  0.00000000E+00  0.00000000E+00  0.00000000E+00
  0.00000000E+00  0.00000000E+00  0.00000000E+00
  0.00000000E+00  0.00000000E+00  0.00000000E+00
  0.00000000E+00  0.00000000E+00  0.00000000E+00
  0.00000000E+00  0.00000000E+00  0.00000000E+00
  0.00000000E+00  0.00000000E+00  0.00000000E+00
  0.00000000E+00  0.00000000E+00  0.00000000E+00
  0.00000000E+00  0.00000000E+00  0.00000000E+00
  0.00000000E+00  0.00000000E+00  0.00000000E+00
  0.00000000E+00  0.00000000E+00  0.00000000E+00
  0.00000000E+00  0.00000000E+00  0.00000000E+00
  0.00000000E+00  0.00000000E+00  0.00000000E+00
  0.00000000E+00  0.00000000E+00  0.00000000E+00
  0.00000000E+00  0.00000000E+00  0.00000000E+00
  0.00000000E+00  0.00000000E+00  0.00000000E+00
  0.00000000E+00  0.00000000E+00  0.00000000E+00
  0.00000000E+00  0.00000000E+00  0.00000000E+00
  0.00000000E+00  0.00000000E+00  0.00000000E+00
  0.00000000E+00  0.00000000E+00  0.00000000E+00
  0.00000000E+00  0.00000000E+00  0.00000000E+00
  0.00000000E+00  0.00000000E+00  0.00000000E+00
  0.00000000E+00  0.00000000E+00  0.00000000E+00
  0.00000000E+00  0.00000000E+00  0.00000000E+00
  0.00000000E+00  0.00000000E+00  0.00000000E+00
  0.00000000E+00  0.00000000E+00  0.00000000E+00
  0.00000000E+00  0.00000000E+00  0.00000000E+00
  0.00000000E+00  0.00000000E+00  0.00000000E+00
  0.00000000E+00  0.00000000E+00  0.00000000E+00
  0.00000000E+00  0.00000000E+00  0.00000000E+00
  0.00000000E+00  0.00000000E+00  0.00000000E+00
  0.00000000E+00  0.00000000E+00  0.00000000E+00
  0.00000000E+00  0.00000000E+00  0.00000000E+00
  0.00000000E+00  0.00000000E+00  0.00000000E+00
  0.00000000E+00  0.00000000E+00  0.00000000E+00
  0.00000000E+00  0.00000000E+00  0.00000000E+00
  0.00000000E+00  0.00000000E+00  0.00000000E+00
  0.00000000E+00  0.00000000E+00  0.00000000E+00
  0.00000000E+00  0.00000000E+00  0.00000000E+00
  0.00000000E+00  0.00000000E+00  0.00000000E+00
  0.00000000E+00  0.00000000E+00  0.00000000E+00
  0.00000000E+00  0.00000000E+00  0.00000000E+00
  0.00000000E+00  0.00000000E+00  0.00000000E+00
  0.00000000E+00  0.00000000E+00  0.00000000E+00
  0.00000000E+00  0.00000000E+00  0.00000000E+00
  0.00000000E+00  0.00000000E+00  0.00000000E+00
  0.00000000E+00  0.00000000E+00  0.00000000E+00
  0.00000000E+00  0.00000000E+00  0.00000000E+00
  0.00000000E+00  0.00000000E+00  0.00000000E+00
  0.00000000E+00  0.00000000E+00  0.00000000E+00
  0.00000000E+00  0.00000000E+00  0.00000000E+00
  0.00000000E+00  0.00000000E+00  0.00000000E+00
  0.00000000E+00  0.00000000E+00  0.00000000E+00
  0.00000000E+00  0.00000000E+00  0.00000000E+00
  0.00000000E+00  0.00000000E+00  0.00000000E+00
  0.00000000E+00  0.00000000E+00  0.00000000E+00
  0.00000000E+00  0.00000000E+00  0.00000000E+00
  0.00000000E+00  0.00000000E+00  0.00000000E+00
  0.00000000E+00  0.00000000E+00  0.00000000E+00
  0.00000000E+00  0.00000000E+00  0.00000000E+00
  0.00000000E+00  0.00000000E+00  0.00000000E+00
  0.00000000E+00  0.00000000E+00  0.00000000E+00
  0.00000000E+00  0.00000000E+00  0.00000000E+00
  0.00000000E+00  0.00000000E+00  0.00000000E+00
  0.00000000E+00  0.00000000E+00  0.00000000E+00
  0.00000000E+00  0.00000000E+00  0.00000000E+00
  0.00000000E+00  0.00000000E+00  0.00000000E+00
  0.00000000E+00  0.00000000E+00  0.00000000E+00
  0.00000000E+00  0.00000000E+00  0.00000000E+00
  0.00000000E+00  0.00000000E+00  0.00000000E+00
  0.00000000E+00  0.00000000E+00  0.00000000E+00
  0.00000000E+00  0.00000000E+00  0.00000000E+00
  0.00000000E+00  0.00000000E+00  0.00000000E+00
  0.00000000E+00  0.00000000E+00  0.00000000E+00
  0.00000000E+00  0.00000000E+00  0.00000000E+00
  0.00000000E+00  0.00000000E+00  0.00000000E+00
