C4                                      
    1.000000000000000     
    17.2710380553999983    0.0000000000000000    0.0000000000000000
    -8.6355190276999991   14.9571577057000002    0.0000000000000000
     0.0000000000000000    0.0000000000000000   15.0000000000000000
   C    H    F 
    88     6     2
Direct
 -0.0001264041452144 -0.0003891772257784  0.2499995784683232
 -0.0006202282660490  0.1423861472327774  0.2499991294494443
 -0.0009701627265115  0.2851881603678051  0.2499997665272785
 -0.0006046914212354  0.4283318828110591  0.2499995606495545
  0.0002481390582830  0.5714642580952415  0.2499995708597836
  0.0013898880949658  0.7147537247892607  0.2499997941910319
  0.0011250537105463  0.8576696250059533  0.2500004422030657
  0.1432190396146452  0.0001785986269225  0.2500030438303837
  0.1422734542681373  0.1424568084859137  0.2499999795587237
  0.1408402689526885  0.2841041215892726  0.2499991146116755
  0.1411853916725866  0.4276402129456057  0.2499994576888171
  0.1426941275102607  0.5709437947047946  0.2499998444738767
  0.1433549848977028  0.7143012821526464  0.2500003107901990
  0.1434830455883264  0.8573639854030535  0.2499998834267175
  0.2857234858761474 -0.0001712371917157  0.2500028284011090
  0.2853923422030639  0.1423958147809241  0.2500010276948720
  0.2849283802540945  0.2861053597840224  0.2499999719495155
  0.2814619901157817  0.4254976684418399  0.2500003501003917
  0.2854511755555009  0.5693256034101590  0.2500005759219769
  0.2853920278465107  0.7144081028705608  0.2499997431810016
  0.2857819839101027  0.8573523514887804  0.2500008890047914
  0.4287195614342246  0.0003447802175968  0.2500004267258862
  0.4283677786307850  0.1427127229910674  0.2499998508551403
  0.4263861368523221  0.2821248020537999  0.2500002697438700
  0.4253457006914287  0.7175997200191855  0.2500032634712970
  0.4284382228560359  0.8577749067866174  0.2499997495440247
  0.5715745076814013  0.0009702695825091  0.2499999122141831
  0.5713695391665498  0.1430625935087527  0.2499996169861689
  0.5721198452407599  0.2862330746868312  0.2499979856150982
  0.5729377336603764  0.8591842917528264  0.2500006928516691
  0.7146983028390000  0.0008689134635308  0.2500002134390376
  0.7143481414333200  0.1433465492174789  0.2499997293558388
  0.7142165475727422  0.2859004176225539  0.2499991657125653
  0.7139047742619425  0.4278937336967432  0.2499969177353393
  0.7182195357103588  0.5734900062599106  0.2500002613234679
  0.7199881257129641  0.7159476355562888  0.2499996846569391
  0.7148938170245926  0.8591654779118170  0.2500000042330935
  0.8575775078745547  0.0005621889475853  0.2500009906619823
  0.8568760907362512  0.1429896428198198  0.2499992819175126
  0.8566965639929366  0.2856657027945968  0.2499998785161573
  0.8571206599945684  0.4285663950033469  0.2499998661316729
  0.8580768598516483  0.5719539748792962  0.2499987819938233
  0.8599789942908814  0.7155459691044975  0.2500000834713755
  0.8575375458776208  0.8569065821469126  0.2499998148939503
  0.0472021425916183  0.0948658516296040  0.2499993353226172
  0.0459881820378347  0.2369907976402744  0.2499993047479673
  0.0461778193635644  0.3802982596175732  0.2499993431372421
  0.0475587835482216  0.5236055287266792  0.2500000865264372
  0.0482860502050616  0.6667978465605491  0.2500004818257948
  0.0484791721112918  0.8098413253064823  0.2500001284914712
  0.0480702298946718  0.9524791530752704  0.2500015449105539
  0.1902192149682601  0.0948949286401636  0.2500018145652059
  0.1891797552778338  0.2373489706509521  0.2499993113181999
  0.1868521641630141  0.3785540337068460  0.2499995957836965
  0.1895504777071558  0.5228032137510396  0.2499998283188584
  0.1903352939939698  0.6665235320657072  0.2499998563352051
  0.1908770844598276  0.8096900306845674  0.2499998145623940
  0.1908346927220912  0.9524133918389117  0.2500029360001074
  0.3332723060089428  0.0951982958068704  0.2500003862176020
  0.3334744647891144  0.2375491297939561  0.2500002525301945
  0.3284959556808932  0.3786244994061591  0.2500005607047212
  0.3281043716382162  0.5189440558448979  0.2500008054444458
  0.3326589182255836  0.6664359993161650  0.2500012680254827
  0.3333247346848612  0.8096602702865198  0.2499994354428860
  0.3333174803425684  0.9524108004240793  0.2500012369985852
  0.4762313445763058  0.0953377918548012  0.2499999791529069
  0.4753625380444040  0.2378132428248607  0.2499999524969738
  0.4765222596175920  0.8108669448060098  0.2500012687663674
  0.4763800245553817  0.9530797053895130  0.2499997583297825
  0.6190063484533528  0.0958241665767617  0.2499998856416967
  0.6191465019979653  0.2382133896986149  0.2499993229242874
  0.6210261293727208  0.3794394701290535  0.2499971089290211
  0.6225192021990070  0.8156410091688140  0.2500011069778136
  0.6196177874152889  0.9539717847540854  0.2500002502884507
  0.7619968657404749  0.0959302671931354  0.2499999220208465
  0.7618142545505712  0.2382408301645249  0.2499996365043494
  0.7620264227745174  0.3809328439109799  0.2499985630987978
  0.7624136134745101  0.5250068598769022  0.2499986673990329
  0.7650743267575971  0.6672831528074866  0.2500015870194486
  0.7614347750771832  0.8088045383060454  0.2499993646975823
  0.7629201007889321  0.9539141800679503  0.2500007523495129
  0.9045048578755929  0.0951221648487320  0.2499995282545523
  0.9041064708407647  0.2379645496868520  0.2499990571496148
  0.9042647017454368  0.3809729915363192  0.2499997215725785
  0.9051599120940852  0.5240430392957400  0.2500001678662047
  0.9062642524295593  0.6671241649901406  0.2499991455246070
  0.9060327190663605  0.8102758852432257  0.2499993244216599
  0.9047000052303339  0.9520572311822095  0.2499990907981410
  0.4623277539926902  0.3546345015710249  0.2500009799303086
  0.4011792539610780  0.4184814872468767  0.2500010524759895
  0.3997529734882954  0.5492581494989165  0.2500009538676171
  0.6457656270939058  0.5400117682795536  0.2499998387803026
  0.5850044871883555  0.4159243302552006  0.2499983256570050
  0.5884150029023483  0.7446315562877743  0.2500001214807503
  0.6287699327159113  0.6626310889033300  0.2499984481186354
  0.4701300452943485  0.6715278452553255  0.2499984852628691
 
  0.00000000E+00  0.00000000E+00  0.00000000E+00
  0.00000000E+00  0.00000000E+00  0.00000000E+00
  0.00000000E+00  0.00000000E+00  0.00000000E+00
  0.00000000E+00  0.00000000E+00  0.00000000E+00
  0.00000000E+00  0.00000000E+00  0.00000000E+00
  0.00000000E+00  0.00000000E+00  0.00000000E+00
  0.00000000E+00  0.00000000E+00  0.00000000E+00
  0.00000000E+00  0.00000000E+00  0.00000000E+00
  0.00000000E+00  0.00000000E+00  0.00000000E+00
  0.00000000E+00  0.00000000E+00  0.00000000E+00
  0.00000000E+00  0.00000000E+00  0.00000000E+00
  0.00000000E+00  0.00000000E+00  0.00000000E+00
  0.00000000E+00  0.00000000E+00  0.00000000E+00
  0.00000000E+00  0.00000000E+00  0.00000000E+00
  0.00000000E+00  0.00000000E+00  0.00000000E+00
  0.00000000E+00  0.00000000E+00  0.00000000E+00
  0.00000000E+00  0.00000000E+00  0.00000000E+00
  0.00000000E+00  0.00000000E+00  0.00000000E+00
  0.00000000E+00  0.00000000E+00  0.00000000E+00
  0.00000000E+00  0.00000000E+00  0.00000000E+00
  0.00000000E+00  0.00000000E+00  0.00000000E+00
  0.00000000E+00  0.00000000E+00  0.00000000E+00
  0.00000000E+00  0.00000000E+00  0.00000000E+00
  0.00000000E+00  0.00000000E+00  0.00000000E+00
  0.00000000E+00  0.00000000E+00  0.00000000E+00
  0.00000000E+00  0.00000000E+00  0.00000000E+00
  0.00000000E+00  0.00000000E+00  0.00000000E+00
  0.00000000E+00  0.00000000E+00  0.00000000E+00
  0.00000000E+00  0.00000000E+00  0.00000000E+00
  0.00000000E+00  0.00000000E+00  0.00000000E+00
  0.00000000E+00  0.00000000E+00  0.00000000E+00
  0.00000000E+00  0.00000000E+00  0.00000000E+00
  0.00000000E+00  0.00000000E+00  0.00000000E+00
  0.00000000E+00  0.00000000E+00  0.00000000E+00
  0.00000000E+00  0.00000000E+00  0.00000000E+00
  0.00000000E+00  0.00000000E+00  0.00000000E+00
  0.00000000E+00  0.00000000E+00  0.00000000E+00
  0.00000000E+00  0.00000000E+00  0.00000000E+00
  0.00000000E+00  0.00000000E+00  0.00000000E+00
  0.00000000E+00  0.00000000E+00  0.00000000E+00
  0.00000000E+00  0.00000000E+00  0.00000000E+00
  0.00000000E+00  0.00000000E+00  0.00000000E+00
  0.00000000E+00  0.00000000E+00  0.00000000E+00
  0.00000000E+00  0.00000000E+00  0.00000000E+00
  0.00000000E+00  0.00000000E+00  0.00000000E+00
  0.00000000E+00  0.00000000E+00  0.00000000E+00
  0.00000000E+00  0.00000000E+00  0.00000000E+00
  0.00000000E+00  0.00000000E+00  0.00000000E+00
  0.00000000E+00  0.00000000E+00  0.00000000E+00
  0.00000000E+00  0.00000000E+00  0.00000000E+00
  0.00000000E+00  0.00000000E+00  0.00000000E+00
  0.00000000E+00  0.00000000E+00  0.00000000E+00
  0.00000000E+00  0.00000000E+00  0.00000000E+00
  0.00000000E+00  0.00000000E+00  0.00000000E+00
  0.00000000E+00  0.00000000E+00  0.00000000E+00
  0.00000000E+00  0.00000000E+00  0.00000000E+00
  0.00000000E+00  0.00000000E+00  0.00000000E+00
  0.00000000E+00  0.00000000E+00  0.00000000E+00
  0.00000000E+00  0.00000000E+00  0.00000000E+00
  0.00000000E+00  0.00000000E+00  0.00000000E+00
  0.00000000E+00  0.00000000E+00  0.00000000E+00
  0.00000000E+00  0.00000000E+00  0.00000000E+00
  0.00000000E+00  0.00000000E+00  0.00000000E+00
  0.00000000E+00  0.00000000E+00  0.00000000E+00
  0.00000000E+00  0.00000000E+00  0.00000000E+00
  0.00000000E+00  0.00000000E+00  0.00000000E+00
  0.00000000E+00  0.00000000E+00  0.00000000E+00
  0.00000000E+00  0.00000000E+00  0.00000000E+00
  0.00000000E+00  0.00000000E+00  0.00000000E+00
  0.00000000E+00  0.00000000E+00  0.00000000E+00
  0.00000000E+00  0.00000000E+00  0.00000000E+00
  0.00000000E+00  0.00000000E+00  0.00000000E+00
  0.00000000E+00  0.00000000E+00  0.00000000E+00
  0.00000000E+00  0.00000000E+00  0.00000000E+00
  0.00000000E+00  0.00000000E+00  0.00000000E+00
  0.00000000E+00  0.00000000E+00  0.00000000E+00
  0.00000000E+00  0.00000000E+00  0.00000000E+00
  0.00000000E+00  0.00000000E+00  0.00000000E+00
  0.00000000E+00  0.00000000E+00  0.00000000E+00
  0.00000000E+00  0.00000000E+00  0.00000000E+00
  0.00000000E+00  0.00000000E+00  0.00000000E+00
  0.00000000E+00  0.00000000E+00  0.00000000E+00
  0.00000000E+00  0.00000000E+00  0.00000000E+00
  0.00000000E+00  0.00000000E+00  0.00000000E+00
  0.00000000E+00  0.00000000E+00  0.00000000E+00
  0.00000000E+00  0.00000000E+00  0.00000000E+00
  0.00000000E+00  0.00000000E+00  0.00000000E+00
  0.00000000E+00  0.00000000E+00  0.00000000E+00
  0.00000000E+00  0.00000000E+00  0.00000000E+00
  0.00000000E+00  0.00000000E+00  0.00000000E+00
  0.00000000E+00  0.00000000E+00  0.00000000E+00
  0.00000000E+00  0.00000000E+00  0.00000000E+00
  0.00000000E+00  0.00000000E+00  0.00000000E+00
  0.00000000E+00  0.00000000E+00  0.00000000E+00
  0.00000000E+00  0.00000000E+00  0.00000000E+00
  0.00000000E+00  0.00000000E+00  0.00000000E+00
