C    H    F    O 
    1.000000000000000     
  17.2710380553999983   0.0000000000000000   0.0000000000000000
  -8.6355190276999991  14.9571577057000002   0.0000000000000000
   0.0000000000000000   0.0000000000000000  15.0000000000000000
C    H    F    O 
88  6  4  1  
Selective dynamics
Direct
  0.0000196708769512  0.0000189908417231  0.4954592882017667 T T T
  0.9997455896969700  0.1427706313765542  0.4953712692210974 T T T
  0.9995453190489260  0.2855696695197092  0.4964370578782721 T T T
  0.9997277659482940  0.4285151956007983  0.4959532341119216 T T T
  0.0000171377282791  0.5715198532118790  0.4964238663653315 T T T
  0.0008108295571226  0.7146337889813671  0.4984023172644924 T T T
  0.0008128175578808  0.8576871415465006  0.4979209170350868 T T T
  0.1430716602906433  0.0002822489266397  0.4962193677225357 T T T
  0.1427391547182991  0.1429882470292770  0.4984551228451106 T T T
  0.1418812825267877  0.2851511153869167  0.5038146709945709 T T T
  0.1418596738552936  0.4282767646232086  0.5041616330152433 T T T
  0.1427584660046820  0.5712894495219271  0.4993882169945851 T T T
  0.1430853437354718  0.7143107167490638  0.4969612971450413 T T T
  0.1431597551416464  0.8573425636569073  0.4958079973746028 T T T
  0.2855682580230896  0.9997683405279834  0.4955876551441341 T T T
  0.2855401233140035  0.1424801791709581  0.5006504382924343 T T T
  0.2852538544639762  0.2856241591557238  0.5142570215154567 T T T
  0.2819742220454772  0.4266919697205048  0.5276946080481264 T T T
  0.2852829247152787  0.5711150399331664  0.5149996166118279 T T T
  0.2855638141625697  0.7145813178423392  0.5015908356942772 T T T
  0.2855816074432889  0.8572969984021589  0.4960003713956542 T T T
  0.4285704136202755  0.0000761168688956  0.4945161131288420 T T T
  0.4283022948596457  0.1421333176727130  0.4955794824760328 T T T
  0.4269738010347304  0.2816588353637222  0.4995831069637216 T T T
  0.4269857975791659  0.7168329898326874  0.5002619887677289 T T T
  0.4283315043758488  0.8577351841911730  0.4960575329884013 T T T
  0.5713848248934607  0.0004586686074782  0.4942669920647818 T T T
  0.5713796622138186  0.1425042600689859  0.4942602774903844 T T T
  0.5721721757272499  0.2853366415481880  0.4956382419038760 T T T
  0.5721743396718444  0.8584276101652958  0.4956538409012036 T T T
  0.7143806156616198  0.0002698384882873  0.4961709517735812 T T T
  0.7144060334273442  0.1429701442523400  0.4939161472936713 T T T
  0.7143661082853421  0.2856817794854986  0.4965068369477236 T T T
  0.7134771902710807  0.4274401748459495  0.5058885804263261 T T T
  0.7219945762252379  0.5747102330401022  0.5331671149803772 T T T
  0.7219761852144492  0.7188109720589306  0.5326690993724600 T T T
  0.7135371008495408  0.8576545772619761  0.5052508204530577 T T T
  0.8572343921540382  0.0002350200707587  0.4979113136901871 T T T
  0.8569947367913723  0.1429010632989817  0.4946315068156349 T T T
  0.8569656345849078  0.2856170724152481  0.4949133811358773 T T T
  0.8571987746666864  0.4285016811785407  0.4987196986546410 T T T
  0.8578308512911199  0.5719505641893506  0.5048342748236090 T T T
  0.8595617314916164  0.7155290954444975  0.5103222602512262 T T T
  0.8578220211024962  0.8573649434916967  0.5040846466211204 T T T
  0.0476129483074944  0.0953688562277559  0.4955504496133258 T T T
  0.0468397797585365  0.2377129108067265  0.4975453588477652 T T T
  0.0468376233760223  0.3806941731532527  0.4978684819132728 T T T
  0.0476207656789096  0.5237843068056474  0.4963732458337304 T T T
  0.0478965486614319  0.6667951545094885  0.4966555246600886 T T T
  0.0480753867430207  0.8097881556128608  0.4971790587088608 T T T
  0.0478787038002926  0.9526013557245446  0.4958704250834016 T T T
  0.1904031520158447  0.0951235511900432  0.4987148314043895 T T T
  0.1898236318476643  0.2379910499236164  0.5044002278180894 T T T
  0.1881092947295124  0.3798375786334335  0.5104614886949641 T T T
  0.1898231428408096  0.5233626573891520  0.5051684607230593 T T T
  0.1904359849914824  0.6668068261694219  0.4997255428887313 T T T
  0.1906292639804870  0.8096941140022046  0.4962141545521267 T T T
  0.1906170678495220  0.9524366911360352  0.4958700200574867 T T T
  0.3331895206700721  0.0950645009935580  0.4967984689374668 T T T
  0.3340990452969715  0.2377367317041477  0.5057004284436468 T T T
  0.3256842886123571  0.3764673684527749  0.5332645253778947 T T T
  0.3257101664312454  0.5205984789030292  0.5336611116218999 T T T
  0.3341084969698154  0.6678721547747443  0.5064890774240638 T T T
  0.3332238558387919  0.8096515668257414  0.4975252870060274 T T T
  0.3331553150727641  0.9523346714652420  0.4950465888947904 T T T
  0.4761836726694317  0.0949083573184343  0.4944329380105469 T T T
  0.4753826822410200  0.2369309462256929  0.4955760276129644 T T T
  0.4753903663026907  0.8099856463426123  0.4959920116711841 T T T
  0.4761953267075279  0.9528610092802068  0.4946540019488417 T T T
  0.6189871431242736  0.0952760563280530  0.4939548807402785 T T T
  0.6192499293054358  0.2376263878263472  0.4954283908274805 T T T
  0.6205725908355371  0.3784743913182728  0.4999053723730985 T T T
  0.6206225222811942  0.8137281237017845  0.4995354377782593 T T T
  0.6192564674080064  0.9532061143750548  0.4953543065754077 T T T
  0.7620162876227790  0.0955500007730631  0.4944681462317045 T T T
  0.7619992483951803  0.2380240037017270  0.4946765294331845 T T T
  0.7620405874559106  0.3807436624130754  0.5005994594028054 T T T
  0.7623884649842544  0.5241861563234675  0.5145066729098553 T T T
  0.7656963033350317  0.6686074722974508  0.5271564394734798 T T T
  0.7623697626319131  0.8097084179445723  0.5137950270053188 T T T
  0.7620815194879078  0.9528985162246127  0.4999402849687598 T T T
  0.9045431646749976  0.0950862539948676  0.4952597174059434 T T T
  0.9044595216535772  0.2380045053712142  0.4946033293934997 T T T
  0.9045268935743780  0.3809827022917174  0.4958910615189558 T T T
  0.9048642900535088  0.5240180562073925  0.4989006867301389 T T T
  0.9057827505913676  0.6670394080824736  0.5042878303754014 T T T
  0.9057612538007120  0.8102089713336167  0.5037715051375343 T T T
  0.9048827135524464  0.9523588996849984  0.4980120408246257 T T T
  0.4634114418521209  0.3536747960146004  0.4990288918556216 T T T
  0.5841194216083591  0.4140519780114536  0.4995779718158114 T T T
  0.5841884282799742  0.7416878031498654  0.4991923003199112 T T T
  0.4634388971055282  0.6812459460948324  0.4996364329203543 T T T
  0.5230540327435438  0.5906269517051924  0.4356963795782621 T T T
  0.5229005796599957  0.5029153391108383  0.4362020173022340 T T T
  0.4134621561420589  0.4215020873621620  0.5577946666677878 T T T
  0.4135286494667861  0.5631448989963370  0.5581011986578680 T T T
  0.6341681470271038  0.6735518913941824  0.5570857267118726 T T T
  0.6341704944295122  0.5321234982721446  0.5575740741576766 T T T
  0.5238278396750493  0.5470200175576851  0.3953361829999977 T T F
