C4                                      
    1.000000000000000     
    17.2710380553999983    0.0000000000000000    0.0000000000000000
    -8.6355190276999991   14.9571577057000002    0.0000000000000000
     0.0000000000000000    0.0000000000000000   15.0000000000000000
   C    H    N 
    84     4     4
Direct
 -0.0000232905127488 -0.0001292396604396  0.2499999670281637
 -0.0007708256175615  0.1422105466482632  0.2500000160365983
 -0.0006380680634526  0.2853765453799171  0.2499996600981878
 -0.0002145857562407  0.4284584082682135  0.2500000360360008
 -0.0002101737736853  0.5713635310283368  0.2500000214907588
  0.0004282070466465  0.7144187537079734  0.2500000290002454
  0.0013281835933048  0.8578457977393488  0.2499999974014560
  0.1439184208361725  0.0013393106809977  0.2499999993604908
  0.1431219217819919  0.1436967226929141  0.2499999724269671
  0.1415811472074476  0.2852290499281267  0.2500000120496671
  0.1430573881506609  0.4287830838771203  0.2499999987221469
  0.1434369973894478  0.5713381195169960  0.2500009820458238
  0.1433548586286206  0.7144198196618459  0.2500002921778569
  0.1436514057822977  0.8579067138913565  0.2499999802089043
  0.2866043294176471  0.0015575768991504  0.2500000052880215
  0.2869719767119617  0.1454506823637186  0.2499999807819954
  0.2861899148162466  0.2906812873871467  0.2499999870137755
  0.2850818667513118  0.4257104837165600  0.2499999970121895
  0.2883270094368897  0.5706874213838022  0.2499999598751341
  0.2862375534303758  0.7146791384604665  0.2499998915597782
  0.2857879902261012  0.8579785670243369  0.2499999387199230
  0.4290009323860612  0.0007056358842793  0.2500000022059697
  0.4299587627688730  0.1452026973437245  0.2499999542736769
  0.4290413983015801  0.2865743299259912  0.2499999177436460
  0.4278204899519978  0.8566096108116116  0.2499999673555114
  0.5709838975933966 -0.0008562843060236  0.2499999598284814
  0.5716671172450843  0.1430086002065633  0.2499999372401225
  0.5753256335721576  0.2896001305225163  0.2499999196717134
  0.5700257515101577  0.8539643262108939  0.2500000250472019
  0.7129704605109447 -0.0025225348598061  0.2499999203917753
  0.7140474297737285  0.1419318750764889  0.2499999227164197
  0.7145767217580499  0.2854779996596492  0.2500000027587315
  0.7104575102672576  0.4255807016682399  0.2500000008760150
  0.7153638848697852  0.5740498602500930  0.2500000473288929
  0.7119821201860533  0.8535043798074282  0.2499999605123856
  0.8561674570106372 -0.0014123717681928  0.2499999437482821
  0.8562912269513118  0.1417842635892635  0.2499999921565310
  0.8567491340973322  0.2851807596300008  0.2500000479964938
  0.8567091446923146  0.4283935178294399  0.2499997626888044
  0.8559140554276491  0.5710566146346076  0.2499993273392855
  0.8582703013157686  0.7150660053541237  0.2500001054348712
  0.8575016931892501  0.8562208444891838  0.2499999758753109
  0.0476591218977245  0.0953283997194133  0.2499999523124148
  0.0462834914056281  0.2372866303297778  0.2500001328938394
  0.0473253767689551  0.3808944354689188  0.2500001068637951
  0.0478501146121057  0.5238510845803919  0.2500003973506569
  0.0478835696158186  0.6667921358429870  0.2499999977954982
  0.0483958983930437  0.8098749259449353  0.2500000255476409
  0.0484223302844321  0.9529711315187074  0.2499999907856605
  0.1913786346657363  0.0965619358482527  0.2499999921681955
  0.1900011341267929  0.2389410025174935  0.2499999626882749
  0.1893235409449126  0.3800615753661636  0.2499999126789453
  0.1917085763040412  0.5241568164355535  0.2500003511870821
  0.1908480695360175  0.6668096691442600  0.2500003384200522
  0.1908959470979353  0.8100302789458790  0.2499998842961812
  0.1914063904219175  0.9534281923382482  0.2500000027813529
  0.3345335097182158  0.0975573864886395  0.2499999845697342
  0.3355171395954241  0.2415187881581268  0.2499999631498771
  0.3321799755604579  0.5209988643581639  0.2499999571025170
  0.3370503548467247  0.6695683207801377  0.2499999431799355
  0.3330730481609915  0.8097862517156710  0.2500003335325770
  0.3336264306313699  0.9533335773760364  0.2500000045623694
  0.4766491797733602  0.0961482346144866  0.2499999655400804
  0.4775454540834277  0.2411420133831629  0.2499999065364908
  0.4722002885583623  0.8054647311008690  0.2500000167424724
  0.4759933672188350  0.9522798935700864  0.2499999941577018
  0.6186267331168733  0.0945665965967737  0.2499999308495886
  0.6198521328355437  0.2386052438985414  0.2499999510839188
  0.6185128493833671  0.8085603045994799  0.2500000213191286
  0.6175246588268949  0.9499395091439682  0.2499999636083461
  0.7610365911992218  0.0935907411809068  0.2499998977479121
  0.7618221401534322  0.2372796744840177  0.2499999681347762
  0.7613399473660165  0.3805577054639028  0.2500000623905782
  0.7593022969537742  0.5244681717392750  0.2499999617571690
  0.7624793161773656  0.6693162828013981  0.2499999532176921
  0.7613308904186121  0.8043234223082983  0.2499999595615529
  0.7605727247857963  0.9495898294388714  0.2499999453988868
  0.9037501010553621  0.0937965672853310  0.2499999483973575
  0.9040600086171433  0.2373595961837246  0.2500001369908540
  0.9042866846352061  0.3808296314021995  0.2499999780153992
  0.9041860682714906  0.5238768683235875  0.2499999523824319
  0.9046259221836999  0.6664362025238633  0.2499999915350599
  0.9060018751329583  0.8099319951057324  0.2499999960001193
  0.9044630457664752  0.9514837079970201  0.2499999700409586
  0.4654672039050080  0.3593753410251884  0.2499999365610076
  0.4050312431000839  0.5560735799107632  0.2500000009897085
  0.6425195794773599  0.5389566821552289  0.2499998984988104
  0.5820488881320449  0.7357605576442177  0.2500000257600117
  0.4269633041790730  0.7150261157834914  0.2500000073252462
  0.7164528222080995  0.7147513804060911  0.2500000292946204
  0.3311094700290311  0.3802731929788399  0.2500000451697640
  0.6205507786111318  0.3800798274412772  0.2499999336015491
 
  0.00000000E+00  0.00000000E+00  0.00000000E+00
  0.00000000E+00  0.00000000E+00  0.00000000E+00
  0.00000000E+00  0.00000000E+00  0.00000000E+00
  0.00000000E+00  0.00000000E+00  0.00000000E+00
  0.00000000E+00  0.00000000E+00  0.00000000E+00
  0.00000000E+00  0.00000000E+00  0.00000000E+00
  0.00000000E+00  0.00000000E+00  0.00000000E+00
  0.00000000E+00  0.00000000E+00  0.00000000E+00
  0.00000000E+00  0.00000000E+00  0.00000000E+00
  0.00000000E+00  0.00000000E+00  0.00000000E+00
  0.00000000E+00  0.00000000E+00  0.00000000E+00
  0.00000000E+00  0.00000000E+00  0.00000000E+00
  0.00000000E+00  0.00000000E+00  0.00000000E+00
  0.00000000E+00  0.00000000E+00  0.00000000E+00
  0.00000000E+00  0.00000000E+00  0.00000000E+00
  0.00000000E+00  0.00000000E+00  0.00000000E+00
  0.00000000E+00  0.00000000E+00  0.00000000E+00
  0.00000000E+00  0.00000000E+00  0.00000000E+00
  0.00000000E+00  0.00000000E+00  0.00000000E+00
  0.00000000E+00  0.00000000E+00  0.00000000E+00
  0.00000000E+00  0.00000000E+00  0.00000000E+00
  0.00000000E+00  0.00000000E+00  0.00000000E+00
  0.00000000E+00  0.00000000E+00  0.00000000E+00
  0.00000000E+00  0.00000000E+00  0.00000000E+00
  0.00000000E+00  0.00000000E+00  0.00000000E+00
  0.00000000E+00  0.00000000E+00  0.00000000E+00
  0.00000000E+00  0.00000000E+00  0.00000000E+00
  0.00000000E+00  0.00000000E+00  0.00000000E+00
  0.00000000E+00  0.00000000E+00  0.00000000E+00
  0.00000000E+00  0.00000000E+00  0.00000000E+00
  0.00000000E+00  0.00000000E+00  0.00000000E+00
  0.00000000E+00  0.00000000E+00  0.00000000E+00
  0.00000000E+00  0.00000000E+00  0.00000000E+00
  0.00000000E+00  0.00000000E+00  0.00000000E+00
  0.00000000E+00  0.00000000E+00  0.00000000E+00
  0.00000000E+00  0.00000000E+00  0.00000000E+00
  0.00000000E+00  0.00000000E+00  0.00000000E+00
  0.00000000E+00  0.00000000E+00  0.00000000E+00
  0.00000000E+00  0.00000000E+00  0.00000000E+00
  0.00000000E+00  0.00000000E+00  0.00000000E+00
  0.00000000E+00  0.00000000E+00  0.00000000E+00
  0.00000000E+00  0.00000000E+00  0.00000000E+00
  0.00000000E+00  0.00000000E+00  0.00000000E+00
  0.00000000E+00  0.00000000E+00  0.00000000E+00
  0.00000000E+00  0.00000000E+00  0.00000000E+00
  0.00000000E+00  0.00000000E+00  0.00000000E+00
  0.00000000E+00  0.00000000E+00  0.00000000E+00
  0.00000000E+00  0.00000000E+00  0.00000000E+00
  0.00000000E+00  0.00000000E+00  0.00000000E+00
  0.00000000E+00  0.00000000E+00  0.00000000E+00
  0.00000000E+00  0.00000000E+00  0.00000000E+00
  0.00000000E+00  0.00000000E+00  0.00000000E+00
  0.00000000E+00  0.00000000E+00  0.00000000E+00
  0.00000000E+00  0.00000000E+00  0.00000000E+00
  0.00000000E+00  0.00000000E+00  0.00000000E+00
  0.00000000E+00  0.00000000E+00  0.00000000E+00
  0.00000000E+00  0.00000000E+00  0.00000000E+00
  0.00000000E+00  0.00000000E+00  0.00000000E+00
  0.00000000E+00  0.00000000E+00  0.00000000E+00
  0.00000000E+00  0.00000000E+00  0.00000000E+00
  0.00000000E+00  0.00000000E+00  0.00000000E+00
  0.00000000E+00  0.00000000E+00  0.00000000E+00
  0.00000000E+00  0.00000000E+00  0.00000000E+00
  0.00000000E+00  0.00000000E+00  0.00000000E+00
  0.00000000E+00  0.00000000E+00  0.00000000E+00
  0.00000000E+00  0.00000000E+00  0.00000000E+00
  0.00000000E+00  0.00000000E+00  0.00000000E+00
  0.00000000E+00  0.00000000E+00  0.00000000E+00
  0.00000000E+00  0.00000000E+00  0.00000000E+00
  0.00000000E+00  0.00000000E+00  0.00000000E+00
  0.00000000E+00  0.00000000E+00  0.00000000E+00
  0.00000000E+00  0.00000000E+00  0.00000000E+00
  0.00000000E+00  0.00000000E+00  0.00000000E+00
  0.00000000E+00  0.00000000E+00  0.00000000E+00
  0.00000000E+00  0.00000000E+00  0.00000000E+00
  0.00000000E+00  0.00000000E+00  0.00000000E+00
  0.00000000E+00  0.00000000E+00  0.00000000E+00
  0.00000000E+00  0.00000000E+00  0.00000000E+00
  0.00000000E+00  0.00000000E+00  0.00000000E+00
  0.00000000E+00  0.00000000E+00  0.00000000E+00
  0.00000000E+00  0.00000000E+00  0.00000000E+00
  0.00000000E+00  0.00000000E+00  0.00000000E+00
  0.00000000E+00  0.00000000E+00  0.00000000E+00
  0.00000000E+00  0.00000000E+00  0.00000000E+00
  0.00000000E+00  0.00000000E+00  0.00000000E+00
  0.00000000E+00  0.00000000E+00  0.00000000E+00
  0.00000000E+00  0.00000000E+00  0.00000000E+00
  0.00000000E+00  0.00000000E+00  0.00000000E+00
  0.00000000E+00  0.00000000E+00  0.00000000E+00
  0.00000000E+00  0.00000000E+00  0.00000000E+00
  0.00000000E+00  0.00000000E+00  0.00000000E+00
  0.00000000E+00  0.00000000E+00  0.00000000E+00
