C4                                      
    1.000000000000000     
    17.2710380553999983    0.0000000000000000    0.0000000000000000
    -8.6355190276999991   14.9571577057000002    0.0000000000000000
     0.0000000000000000    0.0000000000000000   15.0000000000000000
   C    F    N 
    84     4     4
Direct
  0.0008789443454241  0.0001598366935377  0.2500000191531094
 -0.0020847526384344  0.1416571179874306  0.2500000378726933
 -0.0038949815961094  0.2837906294749403  0.2500000252898643
 -0.0021170977868226  0.4276912918453403  0.2499999930805987
  0.0007886086964935  0.5719980513026043  0.2499999513506447
  0.0042187411731279  0.7163300601283006  0.2499999601180279
  0.0042121365083271  0.8590934810329222  0.2500000266923224
  0.1442399374475138  0.0009672308568815  0.2500000236928843
  0.1413376082231981  0.1428439744126398  0.2499999193317877
  0.1375549743992497  0.2833784083367981  0.2499999553668710
  0.1375840845156427  0.4257615084288701  0.2500000013257631
  0.1413865270238645  0.5700262792921248  0.2499999828495267
  0.1442629683840570  0.7146326858802037  0.2500000225348478
  0.1459347956595663  0.8585944895008648  0.2500000378784389
  0.2872401591008141  0.0013689820148753  0.2499996936243147
  0.2839108695968730  0.1434300793384210  0.2499996921091115
  0.2815482986400271  0.2903524557601205  0.2499998498621318
  0.2780558575048415  0.4247634805079493  0.2499998825786049
  0.2816710883665848  0.5626850430471174  0.2499998757197942
  0.2840562833806349  0.7118912797381564  0.2500000602052316
  0.2872558520637517  0.8572324224507957  0.2499997041760527
  0.4294097548441570  0.0004555887415991  0.2499996744992878
  0.4286260169210176  0.1453218928458355  0.2499999043721830
  0.4209759728669443  0.2818789649410017  0.2500007775907042
  0.4212219377531632  0.7105765835336965  0.2499998644467653
  0.4287848405282836  0.8548634099227750  0.2500001501762832
  0.5711959741024220 -0.0012217750673470  0.2499998211840587
  0.5711646415458911  0.1439898539208410  0.2500001249222931
  0.5721486335060070  0.2900031733927345  0.2500001254231937
  0.5723148649579455  0.8538108621329125  0.2500004120904699
  0.7139982454914356 -0.0019368982689699  0.2499996278125560
  0.7130273064807469  0.1423008586854674  0.2499999500703035
  0.7139174438685325  0.2874423995147917  0.2500001642583790
  0.7187450473390451  0.4335797125934399  0.2500005036325426
  0.7189472660517149  0.8568306980695365  0.2499995420110717
  0.8579450636758649 -0.0002964253063907  0.2499996583212784
  0.8550273975655021  0.1414447092026381  0.2499999692100663
  0.8549715853228981  0.2849796220337696  0.2499999843886428
  0.8577830209939163  0.4295673169548931  0.2500001195459049
  0.8610742639489418  0.5749329108188087  0.2500000278821879
  0.8639975537493405  0.7176719526612468  0.2500000731073080
  0.8611448088920390  0.8575426394100810  0.2499999927424293
  0.0466831917229349  0.0950114971559257  0.2500000109136503
  0.0432333241996015  0.2360069484041442  0.2500000101643859
  0.0432122240277585  0.3786693394251298  0.2500000305100268
  0.0466943979432018  0.5231130325159536  0.2500000047163586
  0.0496322403454840  0.6673758576269027  0.2499999362039022
  0.0513552728181543  0.8112766216755153  0.2499999666188963
  0.0496232934859213  0.9534777106824750  0.2500000379100676
  0.1894921403631108  0.0954002215223844  0.2499997565763174
  0.1863501499718057  0.2376524036896298  0.2499999273472456
  0.1835181058558799  0.3775592722244340  0.2499999381141916
  0.1864175029580315  0.5202668754122235  0.2499999560499807
  0.1896212814826141  0.6655953642175716  0.2499999503868967
  0.1925053668240549  0.8101167557952318  0.2500001189313330
  0.1924934017565194  0.9536979377794141  0.2500001305087321
  0.3334530065549391  0.0970616788529598  0.2499999012960999
  0.3285701099280157  0.2383235459675632  0.2500000275817666
  0.3287939066313534  0.6617307596280495  0.2500000098401582
  0.3335661720665840  0.8078278837822264  0.2500000837546068
  0.3343628489182640  0.9528581589170766  0.2499994818241754
  0.4761991113287267  0.0964886367601103  0.2499999975436564
  0.4751846733238570  0.2414837359256168  0.2500002807864298
  0.4753446445324576  0.8052409258459350  0.2500003958692245
  0.4762545006833839  0.9512830429125169  0.2500001035925190
  0.6179540489160463  0.0947847969016612  0.2499999149215031
  0.6186894091222599  0.2403938439116199  0.2500002983973652
  0.6262800067974573  0.3847067349365882  0.2499989501974706
  0.6265459112848529  0.8134107658505559  0.2500025140936418
  0.6187923173508022  0.9499590742213850  0.2499995571439204
  0.7602276941584715  0.0938095632380471  0.2499999185384301
  0.7601941757317371  0.2379439395755904  0.2499999844048038
  0.7633763030344117  0.3833080443042217  0.2500005083447754
  0.7658711244588285  0.5326031753540387  0.2500001587408802
  0.7694802374756819  0.6704797471199619  0.2499999881401408
  0.7659593955494146  0.8048190200076382  0.2499998965535248
  0.7635389838376014  0.9516501800879514  0.2499991428599207
  0.9033115901061136  0.0941428538138352  0.2499999551122513
  0.9015687497546022  0.2365046993685065  0.2500000084200502
  0.9032288471361790  0.3805343670203599  0.2499999707764311
  0.9060712791581276  0.5251232273234071  0.2500000003960689
  0.9098813774809591  0.6694208960784155  0.2500000374786798
  0.9098944764563647  0.8118018985884224  0.2500000423278573
  0.9061800402516567  0.9523170584695589  0.2499999276178774
  0.4549407132645237  0.3693734000202135  0.2499995006989695
  0.5924649485943345  0.4384216186019220  0.2499932083468281
  0.5926695362120841  0.7259116570741674  0.2500092812892582
  0.4551075260206181  0.6568849791644771  0.2499983612316529
  0.7230686142973638  0.5796209388426198  0.2500002525356813
  0.7231106436784785  0.7149890876322852  0.2499996428183656
  0.3243948921090655  0.3802069544427093  0.2499998171643896
  0.3244603181605178  0.5156407185031915  0.2499999219081092
 
  0.00000000E+00  0.00000000E+00  0.00000000E+00
  0.00000000E+00  0.00000000E+00  0.00000000E+00
  0.00000000E+00  0.00000000E+00  0.00000000E+00
  0.00000000E+00  0.00000000E+00  0.00000000E+00
  0.00000000E+00  0.00000000E+00  0.00000000E+00
  0.00000000E+00  0.00000000E+00  0.00000000E+00
  0.00000000E+00  0.00000000E+00  0.00000000E+00
  0.00000000E+00  0.00000000E+00  0.00000000E+00
  0.00000000E+00  0.00000000E+00  0.00000000E+00
  0.00000000E+00  0.00000000E+00  0.00000000E+00
  0.00000000E+00  0.00000000E+00  0.00000000E+00
  0.00000000E+00  0.00000000E+00  0.00000000E+00
  0.00000000E+00  0.00000000E+00  0.00000000E+00
  0.00000000E+00  0.00000000E+00  0.00000000E+00
  0.00000000E+00  0.00000000E+00  0.00000000E+00
  0.00000000E+00  0.00000000E+00  0.00000000E+00
  0.00000000E+00  0.00000000E+00  0.00000000E+00
  0.00000000E+00  0.00000000E+00  0.00000000E+00
  0.00000000E+00  0.00000000E+00  0.00000000E+00
  0.00000000E+00  0.00000000E+00  0.00000000E+00
  0.00000000E+00  0.00000000E+00  0.00000000E+00
  0.00000000E+00  0.00000000E+00  0.00000000E+00
  0.00000000E+00  0.00000000E+00  0.00000000E+00
  0.00000000E+00  0.00000000E+00  0.00000000E+00
  0.00000000E+00  0.00000000E+00  0.00000000E+00
  0.00000000E+00  0.00000000E+00  0.00000000E+00
  0.00000000E+00  0.00000000E+00  0.00000000E+00
  0.00000000E+00  0.00000000E+00  0.00000000E+00
  0.00000000E+00  0.00000000E+00  0.00000000E+00
  0.00000000E+00  0.00000000E+00  0.00000000E+00
  0.00000000E+00  0.00000000E+00  0.00000000E+00
  0.00000000E+00  0.00000000E+00  0.00000000E+00
  0.00000000E+00  0.00000000E+00  0.00000000E+00
  0.00000000E+00  0.00000000E+00  0.00000000E+00
  0.00000000E+00  0.00000000E+00  0.00000000E+00
  0.00000000E+00  0.00000000E+00  0.00000000E+00
  0.00000000E+00  0.00000000E+00  0.00000000E+00
  0.00000000E+00  0.00000000E+00  0.00000000E+00
  0.00000000E+00  0.00000000E+00  0.00000000E+00
  0.00000000E+00  0.00000000E+00  0.00000000E+00
  0.00000000E+00  0.00000000E+00  0.00000000E+00
  0.00000000E+00  0.00000000E+00  0.00000000E+00
  0.00000000E+00  0.00000000E+00  0.00000000E+00
  0.00000000E+00  0.00000000E+00  0.00000000E+00
  0.00000000E+00  0.00000000E+00  0.00000000E+00
  0.00000000E+00  0.00000000E+00  0.00000000E+00
  0.00000000E+00  0.00000000E+00  0.00000000E+00
  0.00000000E+00  0.00000000E+00  0.00000000E+00
  0.00000000E+00  0.00000000E+00  0.00000000E+00
  0.00000000E+00  0.00000000E+00  0.00000000E+00
  0.00000000E+00  0.00000000E+00  0.00000000E+00
  0.00000000E+00  0.00000000E+00  0.00000000E+00
  0.00000000E+00  0.00000000E+00  0.00000000E+00
  0.00000000E+00  0.00000000E+00  0.00000000E+00
  0.00000000E+00  0.00000000E+00  0.00000000E+00
  0.00000000E+00  0.00000000E+00  0.00000000E+00
  0.00000000E+00  0.00000000E+00  0.00000000E+00
  0.00000000E+00  0.00000000E+00  0.00000000E+00
  0.00000000E+00  0.00000000E+00  0.00000000E+00
  0.00000000E+00  0.00000000E+00  0.00000000E+00
  0.00000000E+00  0.00000000E+00  0.00000000E+00
  0.00000000E+00  0.00000000E+00  0.00000000E+00
  0.00000000E+00  0.00000000E+00  0.00000000E+00
  0.00000000E+00  0.00000000E+00  0.00000000E+00
  0.00000000E+00  0.00000000E+00  0.00000000E+00
  0.00000000E+00  0.00000000E+00  0.00000000E+00
  0.00000000E+00  0.00000000E+00  0.00000000E+00
  0.00000000E+00  0.00000000E+00  0.00000000E+00
  0.00000000E+00  0.00000000E+00  0.00000000E+00
  0.00000000E+00  0.00000000E+00  0.00000000E+00
  0.00000000E+00  0.00000000E+00  0.00000000E+00
  0.00000000E+00  0.00000000E+00  0.00000000E+00
  0.00000000E+00  0.00000000E+00  0.00000000E+00
  0.00000000E+00  0.00000000E+00  0.00000000E+00
  0.00000000E+00  0.00000000E+00  0.00000000E+00
  0.00000000E+00  0.00000000E+00  0.00000000E+00
  0.00000000E+00  0.00000000E+00  0.00000000E+00
  0.00000000E+00  0.00000000E+00  0.00000000E+00
  0.00000000E+00  0.00000000E+00  0.00000000E+00
  0.00000000E+00  0.00000000E+00  0.00000000E+00
  0.00000000E+00  0.00000000E+00  0.00000000E+00
  0.00000000E+00  0.00000000E+00  0.00000000E+00
  0.00000000E+00  0.00000000E+00  0.00000000E+00
  0.00000000E+00  0.00000000E+00  0.00000000E+00
  0.00000000E+00  0.00000000E+00  0.00000000E+00
  0.00000000E+00  0.00000000E+00  0.00000000E+00
  0.00000000E+00  0.00000000E+00  0.00000000E+00
  0.00000000E+00  0.00000000E+00  0.00000000E+00
  0.00000000E+00  0.00000000E+00  0.00000000E+00
  0.00000000E+00  0.00000000E+00  0.00000000E+00
  0.00000000E+00  0.00000000E+00  0.00000000E+00
  0.00000000E+00  0.00000000E+00  0.00000000E+00
