C4                                      
   1.00000000000000     
    17.2710380553999983    0.0000000000000000    0.0000000000000000
    -8.6355190276999991   14.9571577057000002    0.0000000000000000
     0.0000000000000000    0.0000000000000000   15.0000000000000000
  C/253f7b50bb8d  H/030f79b5d3ab  O/818f92134a0a
              88              10               1
Selective dynamics
Direct
  0.9994216390547479  0.9997067509405283  0.4953035808499947   T   T   T
  0.9989364724086641  0.1422875656728332  0.4961720685265782   T   T   T
  0.9987214035963192  0.2851164533375677  0.4965277565407447   T   T   T
  0.9989543511277463  0.4281370497030700  0.4958844715469810   T   T   T
  0.9994529018029655  0.5712273265685848  0.4953729256925823   T   T   T
  0.0003837886521665  0.7144194092192550  0.4954434989895001   T   T   T
  0.0003868189510130  0.8574786223774666  0.4953100257193460   T   T   T
  0.1425877826165777  0.0000702137852251  0.4959783407971289   T   T   T
  0.1420560235772926  0.1426916999642004  0.4958799268119063   T   T   T
  0.1412074865973276  0.2848469875566458  0.4963583343749419   T   T   T
  0.1411796239573795  0.4278805676400628  0.4962397833816577   T   T   T
  0.1420376545340720  0.5708753300395759  0.4957731621064036   T   T   T
  0.1425641651461665  0.7140067322458515  0.4962457690758394   T   T   T
  0.1427620899591396  0.8571404373843609  0.4963546065286156   T   T   T
  0.2851573528381650  0.9995831579997513  0.4962177918944433   T   T   T
  0.2849665335887528  0.1423358306253842  0.4956289116730547   T   T   T
  0.2851109270803890  0.2867307116019715  0.4960459890351888   T   T   T
  0.2830266241490683  0.4272863010358195  0.4966122960910470   T   T   T
  0.2850370084689610  0.5698852466352377  0.4957436341632655   T   T   T
  0.2849615549456536  0.7141577995399424  0.4958106478280956   T   T   T
  0.2851374873938233  0.8570576029020547  0.4964638613810110   T   T   T
  0.4280948421901692  0.9997884710790491  0.4960967854705098   T   T   T
  0.4278052596032297  0.1422010233214085  0.4955983155463566   T   T   T
  0.4260785723902182  0.2817894436267551  0.4946843562388006   T   T   T
  0.4260249555294844  0.7157695062438509  0.4945326288160388   T   T   T
  0.4277780458307633  0.8570824674615563  0.4956510957986143   T   T   T
  0.5707556196217345  0.9999099276329410  0.4959920184462913   T   T   T
  0.5707546257728631  0.1422709303079632  0.4960843324056270   T   T   T
  0.5715668403035543  0.2855946561130985  0.4942233237547685   T   T   T
  0.5715245973408176  0.8573957920897592  0.4942047383986365   T   T   T
  0.7136444968508955  0.9997214353972705  0.4955717510053760   T   T   T
  0.7136908294506404  0.1425593587109235  0.4963971070431455   T   T   T
  0.7136710789083747  0.2853800778538440  0.4955230426544748   T   T   T
  0.7132280047762678  0.4275007033560679  0.4925963411775579   T   T   T
  0.7172435916264895  0.5733907207912640  0.4893470271736180   T   T   T
  0.7171744753012640  0.7151880910354231  0.4895193828774058   T   T   T
  0.7131517778584932  0.8571011029040795  0.4927703711121274   T   T   T
  0.8565416863496271  0.9997671829928998  0.4950717012394957   T   T   T
  0.8561765488382841  0.1424101579462229  0.4962803128494754   T   T   T
  0.8561911859412451  0.2852170771791798  0.4962612081945371   T   T   T
  0.8565807788483008  0.4282385730469947  0.4948936815629035   T   T   T
  0.8571613560300269  0.5716508608022577  0.4935432930411864   T   T   T
  0.8586373694302606  0.7150436881532378  0.4929761188694990   T   T   T
  0.8570846623856306  0.8569006222060798  0.4935464814869738   T   T   T
  0.0469153685107487  0.0949498961894484  0.4958452677320867   T   T   T
  0.0459808852348609  0.2372145867581805  0.4964482230422939   T   T   T
  0.0459848975101036  0.3802717204251252  0.4963404175622509   T   T   T
  0.0469135991011967  0.5234558631751481  0.4956837405194094   T   T   T
  0.0473989012892210  0.6665482455608709  0.4957935789367495   T   T   T
  0.0476421888522555  0.8095744461408629  0.4958372565779202   T   T   T
  0.0474108654407841  0.9523707019047519  0.4956163072255393   T   T   T
  0.1897817156915288  0.0948848925882684  0.4958082885599105   T   T   T
  0.1892865277484037  0.2377746467760265  0.4960596174802944   T   T   T
  0.1877540962832076  0.3796552046096934  0.4963659378010670   T   T   T
  0.1892314071030492  0.5230060248750189  0.4957814185120159   T   T   T
  0.1897855753465478  0.6664155465216389  0.4959902527543336   T   T   T
  0.1901767954103001  0.8094401632954793  0.4965018611727463   T   T   T
  0.1902032562327172  0.9522483871767509  0.4962762770066788   T   T   T
  0.3327209533233542  0.0949366793318550  0.4957303545155898   T   T   T
  0.3332051675843820  0.2375760976730196  0.4954358049648382   T   T   T
  0.3292626805233500  0.3795102063986559  0.4968470339409700   T   T   T
  0.3292015065916484  0.5212829742755205  0.4966190893758861   T   T   T
  0.3331608015348083  0.6671310901166175  0.4952231521103075   T   T   T
  0.3327084377131751  0.8092792730884208  0.4960390534038622   T   T   T
  0.3326892665487589  0.9520943447172366  0.4963446100430821   T   T   T
  0.4756101529886561  0.0947359015928973  0.4959854476874061   T   T   T
  0.4748202256587223  0.2372623207796949  0.4947734532816694   T   T   T
  0.4747767105657764  0.8090257322878105  0.4947334334857602   T   T   T
  0.4756068095774713  0.9523411773799477  0.4959328077689722   T   T   T
  0.6182948792439037  0.0948584483671244  0.4963211085682852   T   T   T
  0.6185818836224534  0.2375402409453957  0.4954644819788667   T   T   T
  0.6203583195411111  0.3788621275276838  0.4923610070387441   T   T   T
  0.6202671156519225  0.8128727751055129  0.4925078558789389   T   T   T
  0.6185747108652068  0.9524584199613498  0.4954329821610684   T   T   T
  0.7612327590495718  0.0950768876037389  0.4961739367834911   T   T   T
  0.7612417565292096  0.2375972764384071  0.4962033658150705   T   T   T
  0.7614261860549184  0.3805133937197039  0.4944732007583197   T   T   T
  0.7613721828867904  0.5247664208887914  0.4916037921714206   T   T   T
  0.7634120803694363  0.6674060259973488  0.4904446034015137   T   T   T
  0.7612738300925718  0.8079579225158100  0.4917080871011459   T   T   T
  0.7613729029083487  0.9523210045815894  0.4945813428406322   T   T   T
  0.9037520273082263  0.0945759254772209  0.4959655731810156   T   T   T
  0.9036001358825746  0.2375248137116136  0.4964633856327164   T   T   T
  0.9037818327102919  0.3806468186884734  0.4957636359088201   T   T   T
  0.9043206337483539  0.5237764240619915  0.4946708460872505   T   T   T
  0.9052083993681651  0.6667990116187655  0.4940261875724399   T   T   T
  0.9051785259824735  0.8098630160524065  0.4939966731238606   T   T   T
  0.9042671044010006  0.9519741681782810  0.4947094580708293   T   T   T
  0.4620389583330429  0.3542984535650257  0.4940352456702287   T   T   T
  0.4019142023026120  0.4189994609913645  0.4984186067478256   T   T   T
  0.4018575041066293  0.5544831191432368  0.4979882617280643   T   T   T
  0.6445370655786575  0.6757103124155992  0.4877935886882185   T   T   T
  0.6446110265891307  0.5401775556226361  0.4873526916064136   T   T   T
  0.5842771567138898  0.4152862648366381  0.4904150847911508   T   T   T
  0.5841714015648148  0.7403619432968441  0.4907988275697451   T   T   T
  0.4620184818519669  0.6792536533899683  0.4938129600580796   T   T   T
  0.5468854199686186  0.6012841862018500  0.6397518919286467   T   T   T
  0.5499757277455365  0.5140478750922687  0.6387552694452501   T   T   T
  0.5300996760385813  0.5483235513369212  0.6038297651581483   T   T   T
 
  0.00000000E+00  0.00000000E+00  0.00000000E+00
  0.00000000E+00  0.00000000E+00  0.00000000E+00
  0.00000000E+00  0.00000000E+00  0.00000000E+00
  0.00000000E+00  0.00000000E+00  0.00000000E+00
  0.00000000E+00  0.00000000E+00  0.00000000E+00
  0.00000000E+00  0.00000000E+00  0.00000000E+00
  0.00000000E+00  0.00000000E+00  0.00000000E+00
  0.00000000E+00  0.00000000E+00  0.00000000E+00
  0.00000000E+00  0.00000000E+00  0.00000000E+00
  0.00000000E+00  0.00000000E+00  0.00000000E+00
  0.00000000E+00  0.00000000E+00  0.00000000E+00
  0.00000000E+00  0.00000000E+00  0.00000000E+00
  0.00000000E+00  0.00000000E+00  0.00000000E+00
  0.00000000E+00  0.00000000E+00  0.00000000E+00
  0.00000000E+00  0.00000000E+00  0.00000000E+00
  0.00000000E+00  0.00000000E+00  0.00000000E+00
  0.00000000E+00  0.00000000E+00  0.00000000E+00
  0.00000000E+00  0.00000000E+00  0.00000000E+00
  0.00000000E+00  0.00000000E+00  0.00000000E+00
  0.00000000E+00  0.00000000E+00  0.00000000E+00
  0.00000000E+00  0.00000000E+00  0.00000000E+00
  0.00000000E+00  0.00000000E+00  0.00000000E+00
  0.00000000E+00  0.00000000E+00  0.00000000E+00
  0.00000000E+00  0.00000000E+00  0.00000000E+00
  0.00000000E+00  0.00000000E+00  0.00000000E+00
  0.00000000E+00  0.00000000E+00  0.00000000E+00
  0.00000000E+00  0.00000000E+00  0.00000000E+00
  0.00000000E+00  0.00000000E+00  0.00000000E+00
  0.00000000E+00  0.00000000E+00  0.00000000E+00
  0.00000000E+00  0.00000000E+00  0.00000000E+00
  0.00000000E+00  0.00000000E+00  0.00000000E+00
  0.00000000E+00  0.00000000E+00  0.00000000E+00
  0.00000000E+00  0.00000000E+00  0.00000000E+00
  0.00000000E+00  0.00000000E+00  0.00000000E+00
  0.00000000E+00  0.00000000E+00  0.00000000E+00
  0.00000000E+00  0.00000000E+00  0.00000000E+00
  0.00000000E+00  0.00000000E+00  0.00000000E+00
  0.00000000E+00  0.00000000E+00  0.00000000E+00
  0.00000000E+00  0.00000000E+00  0.00000000E+00
  0.00000000E+00  0.00000000E+00  0.00000000E+00
  0.00000000E+00  0.00000000E+00  0.00000000E+00
  0.00000000E+00  0.00000000E+00  0.00000000E+00
  0.00000000E+00  0.00000000E+00  0.00000000E+00
  0.00000000E+00  0.00000000E+00  0.00000000E+00
  0.00000000E+00  0.00000000E+00  0.00000000E+00
  0.00000000E+00  0.00000000E+00  0.00000000E+00
  0.00000000E+00  0.00000000E+00  0.00000000E+00
  0.00000000E+00  0.00000000E+00  0.00000000E+00
  0.00000000E+00  0.00000000E+00  0.00000000E+00
  0.00000000E+00  0.00000000E+00  0.00000000E+00
  0.00000000E+00  0.00000000E+00  0.00000000E+00
  0.00000000E+00  0.00000000E+00  0.00000000E+00
  0.00000000E+00  0.00000000E+00  0.00000000E+00
  0.00000000E+00  0.00000000E+00  0.00000000E+00
  0.00000000E+00  0.00000000E+00  0.00000000E+00
  0.00000000E+00  0.00000000E+00  0.00000000E+00
  0.00000000E+00  0.00000000E+00  0.00000000E+00
  0.00000000E+00  0.00000000E+00  0.00000000E+00
  0.00000000E+00  0.00000000E+00  0.00000000E+00
  0.00000000E+00  0.00000000E+00  0.00000000E+00
  0.00000000E+00  0.00000000E+00  0.00000000E+00
  0.00000000E+00  0.00000000E+00  0.00000000E+00
  0.00000000E+00  0.00000000E+00  0.00000000E+00
  0.00000000E+00  0.00000000E+00  0.00000000E+00
  0.00000000E+00  0.00000000E+00  0.00000000E+00
  0.00000000E+00  0.00000000E+00  0.00000000E+00
  0.00000000E+00  0.00000000E+00  0.00000000E+00
  0.00000000E+00  0.00000000E+00  0.00000000E+00
  0.00000000E+00  0.00000000E+00  0.00000000E+00
  0.00000000E+00  0.00000000E+00  0.00000000E+00
  0.00000000E+00  0.00000000E+00  0.00000000E+00
  0.00000000E+00  0.00000000E+00  0.00000000E+00
  0.00000000E+00  0.00000000E+00  0.00000000E+00
  0.00000000E+00  0.00000000E+00  0.00000000E+00
  0.00000000E+00  0.00000000E+00  0.00000000E+00
  0.00000000E+00  0.00000000E+00  0.00000000E+00
  0.00000000E+00  0.00000000E+00  0.00000000E+00
  0.00000000E+00  0.00000000E+00  0.00000000E+00
  0.00000000E+00  0.00000000E+00  0.00000000E+00
  0.00000000E+00  0.00000000E+00  0.00000000E+00
  0.00000000E+00  0.00000000E+00  0.00000000E+00
  0.00000000E+00  0.00000000E+00  0.00000000E+00
  0.00000000E+00  0.00000000E+00  0.00000000E+00
  0.00000000E+00  0.00000000E+00  0.00000000E+00
  0.00000000E+00  0.00000000E+00  0.00000000E+00
  0.00000000E+00  0.00000000E+00  0.00000000E+00
  0.00000000E+00  0.00000000E+00  0.00000000E+00
  0.00000000E+00  0.00000000E+00  0.00000000E+00
  0.00000000E+00  0.00000000E+00  0.00000000E+00
  0.00000000E+00  0.00000000E+00  0.00000000E+00
  0.00000000E+00  0.00000000E+00  0.00000000E+00
  0.00000000E+00  0.00000000E+00  0.00000000E+00
  0.00000000E+00  0.00000000E+00  0.00000000E+00
  0.00000000E+00  0.00000000E+00  0.00000000E+00
  0.00000000E+00  0.00000000E+00  0.00000000E+00
  0.00000000E+00  0.00000000E+00  0.00000000E+00
  0.00000000E+00  0.00000000E+00  0.00000000E+00
  0.00000000E+00  0.00000000E+00  0.00000000E+00
  0.00000000E+00  0.00000000E+00  0.00000000E+00
