C    H    F    O 
    1.000000000000000     
  17.2710380553999983   0.0000000000000000   0.0000000000000000
  -8.6355190276999991  14.9571577057000002   0.0000000000000000
   0.0000000000000000   0.0000000000000000  15.0000000000000000
C    H    F    O 
88  8  2  1  
Selective dynamics
Direct
  0.9999408825502750  0.9999432612990350  0.4987910875198059 T T T
  0.9994746022760820  0.1425282806068013  0.4983691429201589 T T T
  0.9992591564911130  0.2853950847907111  0.4972689379342816 T T T
  0.9995021223720260  0.4284773143400566  0.4956212319194810 T T T
  0.0001135831069231  0.5715622303228398  0.4956869126179818 T T T
  0.0011275520795690  0.7147737102502872  0.4977413806938459 T T T
  0.0010376857235559  0.8578731431571804  0.4992114062169765 T T T
  0.1432539243276045  0.0005547167392185  0.4984945985171269 T T T
  0.1428239029411420  0.1432183303852081  0.5007923457105465 T T T
  0.1415845370349598  0.2850961973071326  0.5030012499265215 T T T
  0.1415017679240052  0.4282771842956010  0.5010242829847649 T T T
  0.1425956798496347  0.5713072148536826  0.4973567189271828 T T T
  0.1432148844618190  0.7144166841858978  0.4960764603758256 T T T
  0.1433899611850923  0.8575701042069792  0.4966392886203094 T T T
  0.2857541142901220  0.0000383119262473  0.4975344767425297 T T T
  0.2857193822841633  0.1428493729277042  0.5027125475866001 T T T
  0.2858998951393455  0.2866658269697668  0.5122668525565807 T T T
  0.2821639653958641  0.4281465613190271  0.5164848822994608 T T T
  0.2852857431358604  0.5703762572630990  0.5065521128983898 T T T
  0.2855573290774503  0.7145044023373026  0.4986601253165297 T T T
  0.2857005114590503  0.8574473095324523  0.4962470415110727 T T T
  0.4286337004860793  0.0000150932789528  0.4962896439723781 T T T
  0.4284785702463730  0.1422991485295037  0.4985225095607816 T T T
  0.4273172912320212  0.2820356073191903  0.5033478124601533 T T T
  0.4266899954770679  0.7159200227491412  0.5002014433677515 T T T
  0.4282663035705375  0.8573225828593485  0.4971532031724804 T T T
  0.5712835443759784  0.0003636720685044  0.4967555820806285 T T T
  0.5713870423530368  0.1426413759283194  0.4965233093051126 T T T
  0.5722445038978834  0.2859517165471026  0.4982608954494798 T T T
  0.5720170980554393  0.8581734573731449  0.4992779775366301 T T T
  0.7141866493671672  0.9999849265551510  0.4993269069783593 T T T
  0.7142775541338792  0.1428196370678347  0.4963125361865260 T T T
  0.7142933065329550  0.2856496496552910  0.4970263022972152 T T T
  0.7137902764135957  0.4277256829623169  0.5019626539091266 T T T
  0.7183937535786737  0.5731511436304980  0.5174109945983324 T T T
  0.7211687442698133  0.7165076773638670  0.5239051281036855 T T T
  0.7132112229159099  0.8571797802905287  0.5071490423903762 T T T
  0.8569956688572646  0.9999311817326400  0.5012165719144527 T T T
  0.8567316657635052  0.1426452029899075  0.4974008946181728 T T T
  0.8567799242642277  0.2854702472445365  0.4959033430432080 T T T
  0.8571789028125741  0.4285277837953251  0.4973176655610073 T T T
  0.8579348655703519  0.5718910516914822  0.5016428445547860 T T T
  0.8598666121795899  0.7154192290590234  0.5063243202113893 T T T
  0.8575349801955852  0.8569096845376398  0.5048791556751102 T T T
  0.0475246677399739  0.0953160260071249  0.4987530521423229 T T T
  0.0464950260510647  0.2374593555178647  0.4989348343954883 T T T
  0.0464417240764165  0.3805675611232984  0.4972572572900862 T T T
  0.0475498311051571  0.5238169600907071  0.4955839693601075 T T T
  0.0480670169405126  0.6668872565338649  0.4960431416857489 T T T
  0.0482897721957697  0.8099463769592588  0.4976151071906940 T T T
  0.0480440533820880  0.9527821144595328  0.4983921495547536 T T T
  0.1905661787918254  0.0954141350780726  0.5009127101901218 T T T
  0.1899690864990217  0.2383684181618324  0.5045455338672199 T T T
  0.1877250075453535  0.3798733153354407  0.5059321897688951 T T T
  0.1897015803591593  0.5234430447515328  0.5012063228362658 T T T
  0.1904220872580485  0.6668275657683830  0.4972937231555660 T T T
  0.1907751602048166  0.8098567689304380  0.4961457486655549 T T T
  0.1908162586307056  0.9527112125763756  0.4975471354531752 T T T
  0.3333614200929359  0.0953773986841641  0.4994190617051885 T T T
  0.3343400687021287  0.2381705015059213  0.5071048228097000 T T T
  0.3263699456446694  0.3787397144187992  0.5239276157286420 T T T
  0.3292078463819493  0.5220798055583826  0.5169633048370650 T T T
  0.3337637751314436  0.6675141917774002  0.5018696928516000 T T T
  0.3332178628258063  0.8096058656659936  0.4970164358976130 T T T
  0.3332547436344759  0.9524658676919344  0.4964174462370418 T T T
  0.4762473152032066  0.0949164815643308  0.4968221880999106 T T T
  0.4755112553572101  0.2371335413165454  0.4993613121664989 T T T
  0.4752872030278933  0.8093012420251144  0.4983195007795770 T T T
  0.4761189658225052  0.9525857869668426  0.4964626313264712 T T T
  0.6188850324151378  0.0952342698986959  0.4963259626719734 T T T
  0.6192478955317030  0.2379310854391458  0.4971998357297973 T T T
  0.6208656316777307  0.3793432540923831  0.5000464300646725 T T T
  0.6202494353758818  0.8133010056918920  0.5031488411911555 T T T
  0.6190774374436681  0.9530131729272736  0.4984354046556175 T T T
  0.7618059400046130  0.0953030699668788  0.4973138157936435 T T T
  0.7618231615217350  0.2378357279696018  0.4960953375604699 T T T
  0.7619949357051370  0.3807658280887768  0.4987529166049014 T T T
  0.7623106264223231  0.5248748083619865  0.5068921901336417 T T T
  0.7653850418155471  0.6671066479939497  0.5166133773206560 T T T
  0.7615902478677660  0.8086068248844896  0.5123722565293699 T T T
  0.7618243133918514  0.9525195580839824  0.5028552078172229 T T T
  0.9042676685797322  0.0947978662753013  0.4986213762224262 T T T
  0.9041751217610134  0.2377810167610868  0.4963462580712747 T T T
  0.9043524669369560  0.3809223261214880  0.4957743767135184 T T T
  0.9050303466062556  0.5240596220850391  0.4975296666753003 T T T
  0.9060807954915886  0.6670444695859226  0.5016036632883621 T T T
  0.9059420053129750  0.8101983407781729  0.5034196437776105 T T T
  0.9046615292394636  0.9520519870407820  0.5010727506103674 T T T
  0.4638214584768363  0.3540953214770179  0.5035755805025001 T T T
  0.4013899126059179  0.5554377847783964  0.5237343653174631 T T T
  0.6461912937186727  0.5397397582329008  0.5242253896083673 T T T
  0.5849835094311365  0.4160108371289238  0.4997392759710749 T T T
  0.5837759701659343  0.7412377668275072  0.5032252993432654 T T T
  0.4625928117369804  0.6793014725646518  0.5002711397150682 T T T
  0.5667716784299738  0.5927425380192631  0.3556864693742554 T T T
  0.4809801174335351  0.5008051641040775  0.3556006593611248 T T T
  0.4155165449577781  0.4290154922611918  0.5428016310758973 T T T
  0.6319566171974380  0.6660839803855282  0.5426442057551826 T T T
  0.5241368064853911  0.5465187294590592  0.3953361829999977 T T F
