C    F    H    O 
    1.000000000000000     
  17.2710380553999983   0.0000000000000000   0.0000000000000000
  -8.6355190276999991  14.9571577057000002   0.0000000000000000
   0.0000000000000000   0.0000000000000000  15.0000000000000000
C    F    H    O 
88  8  2  1  
Selective dynamics
Direct
  0.0019354478488693  0.0007149707301426  0.5096683826883667 T T T
  0.0012298466596710  0.1429562828659098  0.5084032741488167 T T T
  0.0007598922301546  0.2854610281080526  0.5055164185430253 T T T
  0.0003349145328212  0.4283852036571414  0.5022782828905040 T T T
  0.0007285412400130  0.5714715105101865  0.5012556086067881 T T T
  0.0020699800686794  0.7148122138791819  0.5038213867400505 T T T
  0.0026301518256628  0.8584364114484895  0.5066145659473187 T T T
  0.1451578661435418  0.0012860720889422  0.5084089419834696 T T T
  0.1446217671816941  0.1436933645970807  0.5185009743935699 T T T
  0.1431837559912309  0.2852202669004240  0.5210190165397627 T T T
  0.1422712769945199  0.4281031598369263  0.5133921981478394 T T T
  0.1433865548887686  0.5711599651587894  0.5049569034163633 T T T
  0.1441532595573042  0.7143906412803072  0.5038608450063738 T T T
  0.1444618547212143  0.8576676165641929  0.5036349684372540 T T T
  0.2867765071581341  0.9999850131000624  0.5045442660856350 T T T
  0.2879738573503218  0.1435947502513280  0.5189223849554582 T T T
  0.2869832885668992  0.2862053352603915  0.5427162091750213 T T T
  0.2820320464443475  0.4275936930446717  0.5415021849890285 T T T
  0.2856289421078598  0.5707671525512373  0.5189755435051556 T T T
  0.2865339522078922  0.7146308498766200  0.5088970594364068 T T T
  0.2866064562222067  0.8573500017965798  0.5029007843262479 T T T
  0.4295402262934516  0.9995497870191810  0.5008150962889844 T T T
  0.4291125594405236  0.1411078427921705  0.5072971698029562 T T T
  0.4284047514993806  0.2739788769053756  0.5531083171964442 T T T
  0.4265654999404647  0.7171711142738411  0.4954904286141570 T T T
  0.4291916387382154  0.8573187111386028  0.5063139259281029 T T T
  0.5723878878260592  0.9998329709751590  0.4982717890366619 T T T
  0.5724342940600207  0.1416461690466767  0.5026289699729887 T T T
  0.5723706148971255  0.2832528959887980  0.5096719177060314 T T T
  0.5730212446743153  0.8586564686657490  0.5121072259982433 T T T
  0.7157578453031012  0.0003784666771319  0.5009102217321203 T T T
  0.7156099316814007  0.1426727248352680  0.4979446456176071 T T T
  0.7154225413591279  0.2851499554974321  0.5025422259342137 T T T
  0.7137947289322621  0.4274682883734261  0.5034145166445833 T T T
  0.7217971568977226  0.5751952164127596  0.5238236066379095 T T T
  0.7212191883751778  0.7172170181430210  0.5093306465977759 T T T
  0.7155406531354405  0.8584057711418526  0.5182687157143505 T T T
  0.8586256670776539  0.0002656994784097  0.5047270792031463 T T T
  0.8583947328669603  0.1428629719444187  0.4999392043540885 T T T
  0.8580922171565363  0.2854540688651792  0.4998911459558485 T T T
  0.8576145087207222  0.4283478741913060  0.5026103361493963 T T T
  0.8582972535878243  0.5719478348155255  0.5025423638416552 T T T
  0.8611593959271676  0.7160824697267016  0.5093089465802639 T T T
  0.8595034325281158  0.8579615938041636  0.5135315867981753 T T T
  0.0494615022149729  0.0960016964037621  0.5117271450615849 T T T
  0.0482936161684315  0.2378076392201227  0.5106177683537783 T T T
  0.0474660406735018  0.3805626757620651  0.5063393905913105 T T T
  0.0482167945918311  0.5236620666960566  0.5022405739571106 T T T
  0.0489215897508705  0.6668009883359642  0.5023937374249245 T T T
  0.0494461718952726  0.8101294859284682  0.5045419846007915 T T T
  0.0499124487800694  0.9534660837223936  0.5083926619332798 T T T
  0.1926684032488700  0.0962818187426958  0.5148086361858529 T T T
  0.1915815222522766  0.2384084550368569  0.5280673003781124 T T T
  0.1885631928536820  0.3800233020586389  0.5243234838060076 T T T
  0.1902447599673519  0.5230600103995179  0.5102774092816859 T T T
  0.1912903330322273  0.6666851936832970  0.5066712312809423 T T T
  0.1916775206745158  0.8097863273550294  0.5033674045207911 T T T
  0.1919826660973415  0.9528257932474464  0.5050771015705280 T T T
  0.3343056242923718  0.0949710540607218  0.5099748879157757 T T T
  0.3359352672173729  0.2375287831156971  0.5397358229961751 T T T
  0.3273304491994867  0.3790946852444721  0.5494362269842076 T T T
  0.3257935824803317  0.5218863928151847  0.5455455877037089 T T T
  0.3342206418077222  0.6669337270531589  0.5089955584940198 T T T
  0.3341194554286079  0.8096600280178160  0.5052893236387926 T T T
  0.3342196803544877  0.9523278581236858  0.5020107916956221 T T T
  0.4773026619555905  0.0942956916468585  0.5011030881527123 T T T
  0.4768630377253208  0.2346148527635762  0.5202891222376049 T T T
  0.4770073913213446  0.8101158036624458  0.5067347660309134 T T T
  0.4772885373400539  0.9523903658091758  0.5022855788746170 T T T
  0.6202276529830444  0.0947125625228687  0.4984931110491455 T T T
  0.6204984411396235  0.2367115650265352  0.5063493632212600 T T T
  0.6207689337871328  0.3756284183357827  0.4945897611435096 T T T
  0.6238578938881243  0.8189593324258443  0.5358242016726840 T T T
  0.6206543192681125  0.9529526852578286  0.5007259140584658 T T T
  0.7633879430915959  0.0954679806207861  0.4984103339544231 T T T
  0.7631475164692891  0.2377097537122351  0.4992264105883196 T T T
  0.7622859608862503  0.3802773696873082  0.5046629532118003 T T T
  0.7622060527303898  0.5241240839474014  0.5077231350654594 T T T
  0.7664346596940107  0.6686805580605688  0.5143351377034451 T T T
  0.7634695319645747  0.8097798646983754  0.5166321432034571 T T T
  0.7632532401286487  0.9529291990252134  0.5049432484179267 T T T
  0.9060096182031370  0.0951838250471074  0.5031434719506883 T T T
  0.9057416760916700  0.2378926448474608  0.5007978114956847 T T T
  0.9051167753125612  0.3807879662045451  0.5011840977524098 T T T
  0.9054163693371760  0.5239382531389752  0.5009813523419275 T T T
  0.9069432764425588  0.6671560397664199  0.5054576438985021 T T T
  0.9075346918162520  0.8109642599753417  0.5092827554701896 T T T
  0.9066397230661012  0.9529657871804540  0.5099348170218293 T T T
  0.4763641806054541  0.3460815182417785  0.6058762473124062 T T T
  0.4166089989891450  0.4292240474418243  0.5571420083273743 T T T
  0.4085241844075143  0.5659441696606592  0.5813895411196544 T T T
  0.6333776272573528  0.6696600982635195  0.4878854948304361 T T T
  0.6379221625020375  0.5371581149468717  0.5573902859014559 T T T
  0.5733359896839515  0.4129188027560527  0.4633925955488626 T T T
  0.5827142366489946  0.7427250575933797  0.5842642418245173 T T T
  0.4697333995889511  0.6754743507487037  0.4636323943187704 T T T
  0.4892272379891824  0.5745098810045323  0.3832587700085802 T T T
  0.5024069368723563  0.5144531171127030  0.4491607046963261 T T T
  0.4700613185640849  0.5122659055608254  0.3953361829999977 T T F
