C    N    H    O                        
   1.00000000000000     
    17.2710380553999983    0.0000000000000000    0.0000000000000000
    -8.6355190276999991   14.9571577057000002    0.0000000000000000
     0.0000000000000000    0.0000000000000000   15.0000000000000000
  C/253f7b50bb8d  N/e053789ff3a6  H/030f79b5d3ab  O/818f92134a0a
              80               8               2               1
Selective dynamics
Direct
  0.0005350467112422  0.0009882459881738  0.5032413272119789   T   T   T
  0.9995798276426019  0.1432009097130449  0.5028554728089948   T   T   T
  0.9993423135039843  0.2862602151706767  0.5027163152062212   T   T   T
  0.9996772585559004  0.4295675317443844  0.5030174036046994   T   T   T
  0.0006585652392204  0.5726975332570976  0.5033471324973767   T   T   T
  0.0021282425845998  0.7160215681203432  0.5033466758157461   T   T   T
  0.0020706266657808  0.8591717740154620  0.5033075263100134   T   T   T
  0.1448988538087969  0.0027468753349623  0.5023864978498312   T   T   T
  0.1441407453366964  0.1452567266825097  0.5020979618998662   T   T   T
  0.1422887966421903  0.2862641824105440  0.5016363885532108   T   T   T
  0.1424067577499010  0.4291751890363996  0.5017562670775846   T   T   T
  0.1443556722073226  0.5720276097404252  0.5022328189934044   T   T   T
  0.1449760305763696  0.7152763710123579  0.5024546438611527   T   T   T
  0.1449641181104790  0.8590333814263192  0.5024120238067710   T   T   T
  0.2874899657874926  0.0022930424851023  0.5022035261694850   T   T   T
  0.2880444391553303  0.1470505036664821  0.5019790298062163   T   T   T
  0.2887672790873248  0.2941687655129148  0.5014286843074941   T   T   T
  0.2846320900665026  0.4287668848784562  0.5011562649170924   T   T   T
  0.2891768414939419  0.5677363647511229  0.5015193486276287   T   T   T
  0.2881469845471009  0.7141436676300034  0.5020637756546146   T   T   T
  0.2875246281008846  0.8583505485344655  0.5022289338978100   T   T   T
  0.4300382405986019  0.0016426419169585  0.5031031786029275   T   T   T
  0.4300781812948006  0.1465066361202200  0.5029250084842410   T   T   T
  0.4301266068159780  0.8568302671678512  0.5029857336819230   T   T   T
  0.5719115686778572  0.0003625523334380  0.5042329580428622   T   T   T
  0.5718805827981382  0.1448365313135161  0.5041776947217537   T   T   T
  0.5741315853405137  0.2925863060184386  0.5038957466322534   T   T   T
  0.5742606968090799  0.8548999440945895  0.5040255800624687   T   T   T
  0.7139592931889850  0.9992019183333971  0.5044209293996481   T   T   T
  0.7142786808758721  0.1437780854048410  0.5046159229559544   T   T   T
  0.7139376883687371  0.2880021263961852  0.5043919837325005   T   T   T
  0.7097049379034049  0.4290531809754732  0.5045123232692732   T   T   T
  0.7096074864825570  0.8538329759487898  0.5046385821675090   T   T   T
  0.8565190115695070  0.9994634052138557  0.5039463946197228   T   T   T
  0.8565102413148289  0.1430519436841809  0.5039312303912945   T   T   T
  0.8565276392746533  0.2866974047797202  0.5040177855598357   T   T   T
  0.8565763511550590  0.4302633745837614  0.5040299588476622   T   T   T
  0.8571907354237588  0.5734712943144284  0.5042503460905142   T   T   T
  0.8594547450670004  0.7162563583439986  0.5043710892467542   T   T   T
  0.8571115671564971  0.8567891798720843  0.5042294782807047   T   T   T
  0.0483564624699697  0.0965682506377174  0.5027088702610831   T   T   T
  0.0467180314048132  0.2383138246454959  0.5023002424424778   T   T   T
  0.0468035885272469  0.3815841696733002  0.5024182587514877   T   T   T
  0.0485263124776291  0.5249615095225830  0.5028392858040265   T   T   T
  0.0493361069973130  0.6681066743301892  0.5030223165362194   T   T   T
  0.0495801844744393  0.8113446914909281  0.5030233426956606   T   T   T
  0.0492555097406033  0.9542856033328879  0.5029601812779330   T   T   T
  0.1923874560057585  0.0981148470777501  0.5020794270091630   T   T   T
  0.1918088041324420  0.2407476388334136  0.5016157494172312   T   T   T
  0.1889838835667163  0.3810167180865769  0.5014027887683576   T   T   T
  0.1921106599967138  0.5242180723956843  0.5017784730146614   T   T   T
  0.1925043211444425  0.6674168762381445  0.5021760970891014   T   T   T
  0.1924631824829736  0.8109891047902791  0.5022418246868735   T   T   T
  0.1924264193792797  0.9545651935854168  0.5022064486063202   T   T   T
  0.3350234037580934  0.0985270120291112  0.5023078217177370   T   T   T
  0.3392199413547989  0.2437626914386185  0.5018838750887681   T   T   T
  0.3394683111600910  0.6687039542074016  0.5019665763225069   T   T   T
  0.3350814332504863  0.8096613984646254  0.5023591773727794   T   T   T
  0.3347027717657960  0.9539281855207247  0.5024176224918734   T   T   T
  0.4770793026013100  0.0974299162088880  0.5034437898595745   T   T   T
  0.4748429861210601  0.2429398174212132  0.5030415610093815   T   T   T
  0.4749261504314330  0.8051918594330526  0.5031444129471293   T   T   T
  0.4770964534752833  0.9529273375794095  0.5034697674050278   T   T   T
  0.6189438087096479  0.0961304103982912  0.5044729829856183   T   T   T
  0.6188906339355904  0.2409382384718190  0.5042128582208287   T   T   T
  0.6189316113573582  0.9512881861371600  0.5043032292278805   T   T   T
  0.7614701443867607  0.0953973252543279  0.5044839710943821   T   T   T
  0.7614658964066979  0.2393264979781330  0.5044928073831585   T   T   T
  0.7608522482426094  0.3834882986854956  0.5043650403626941   T   T   T
  0.7601594756806448  0.5300428585130844  0.5047536624396085   T   T   T
  0.7635208712303502  0.6683993579507193  0.5049487679935544   T   T   T
  0.7600435362037059  0.8031510506899252  0.5048140482372252   T   T   T
  0.7608336670053989  0.9505769471055207  0.5043831923262331   T   T   T
  0.9039678286268965  0.0948084059437240  0.5035706477772527   T   T   T
  0.9039676886279995  0.2385939180280182  0.5036390628243531   T   T   T
  0.9040401644349080  0.3823743566222140  0.5037167767937819   T   T   T
  0.9048638633331710  0.5256429013738767  0.5038638498073135   T   T   T
  0.9064659304585145  0.6684405832423359  0.5040659798094317   T   T   T
  0.9064105879181276  0.8111061020348306  0.5040429470885160   T   T   T
  0.9047628861425001  0.9522806909357820  0.5037810383438759   T   T   T
  0.4291256796941834  0.2877384959429166  0.5024037271739111   T   T   T
  0.4292670950610955  0.7147418195741373  0.5024903596702041   T   T   T
  0.7169685626701431  0.5763942957669075  0.5051342176906548   T   T   T
  0.7170319638585128  0.7136967302193258  0.5052256807874136   T   T   T
  0.3314997578536708  0.3838503416137518  0.5011562520002187   T   T   T
  0.3318804429938675  0.5206192858528739  0.5011638310776021   T   T   T
  0.6198132147296253  0.3831195153775541  0.5041671552183477   T   T   T
  0.6198565368478705  0.8100907335143246  0.5043320781471337   T   T   T
  0.4644676575319517  0.5224347893051393  0.5006708255434615   T   T   T
  0.5331683260581302  0.4899578042146525  0.5020757986532552   T   T   T
  0.5285211817742131  0.5438855140205571  0.5000000000000000   T   T   F
 
  0.00000000E+00  0.00000000E+00  0.00000000E+00
  0.00000000E+00  0.00000000E+00  0.00000000E+00
  0.00000000E+00  0.00000000E+00  0.00000000E+00
  0.00000000E+00  0.00000000E+00  0.00000000E+00
  0.00000000E+00  0.00000000E+00  0.00000000E+00
  0.00000000E+00  0.00000000E+00  0.00000000E+00
  0.00000000E+00  0.00000000E+00  0.00000000E+00
  0.00000000E+00  0.00000000E+00  0.00000000E+00
  0.00000000E+00  0.00000000E+00  0.00000000E+00
  0.00000000E+00  0.00000000E+00  0.00000000E+00
  0.00000000E+00  0.00000000E+00  0.00000000E+00
  0.00000000E+00  0.00000000E+00  0.00000000E+00
  0.00000000E+00  0.00000000E+00  0.00000000E+00
  0.00000000E+00  0.00000000E+00  0.00000000E+00
  0.00000000E+00  0.00000000E+00  0.00000000E+00
  0.00000000E+00  0.00000000E+00  0.00000000E+00
  0.00000000E+00  0.00000000E+00  0.00000000E+00
  0.00000000E+00  0.00000000E+00  0.00000000E+00
  0.00000000E+00  0.00000000E+00  0.00000000E+00
  0.00000000E+00  0.00000000E+00  0.00000000E+00
  0.00000000E+00  0.00000000E+00  0.00000000E+00
  0.00000000E+00  0.00000000E+00  0.00000000E+00
  0.00000000E+00  0.00000000E+00  0.00000000E+00
  0.00000000E+00  0.00000000E+00  0.00000000E+00
  0.00000000E+00  0.00000000E+00  0.00000000E+00
  0.00000000E+00  0.00000000E+00  0.00000000E+00
  0.00000000E+00  0.00000000E+00  0.00000000E+00
  0.00000000E+00  0.00000000E+00  0.00000000E+00
  0.00000000E+00  0.00000000E+00  0.00000000E+00
  0.00000000E+00  0.00000000E+00  0.00000000E+00
  0.00000000E+00  0.00000000E+00  0.00000000E+00
  0.00000000E+00  0.00000000E+00  0.00000000E+00
  0.00000000E+00  0.00000000E+00  0.00000000E+00
  0.00000000E+00  0.00000000E+00  0.00000000E+00
  0.00000000E+00  0.00000000E+00  0.00000000E+00
  0.00000000E+00  0.00000000E+00  0.00000000E+00
  0.00000000E+00  0.00000000E+00  0.00000000E+00
  0.00000000E+00  0.00000000E+00  0.00000000E+00
  0.00000000E+00  0.00000000E+00  0.00000000E+00
  0.00000000E+00  0.00000000E+00  0.00000000E+00
  0.00000000E+00  0.00000000E+00  0.00000000E+00
  0.00000000E+00  0.00000000E+00  0.00000000E+00
  0.00000000E+00  0.00000000E+00  0.00000000E+00
  0.00000000E+00  0.00000000E+00  0.00000000E+00
  0.00000000E+00  0.00000000E+00  0.00000000E+00
  0.00000000E+00  0.00000000E+00  0.00000000E+00
  0.00000000E+00  0.00000000E+00  0.00000000E+00
  0.00000000E+00  0.00000000E+00  0.00000000E+00
  0.00000000E+00  0.00000000E+00  0.00000000E+00
  0.00000000E+00  0.00000000E+00  0.00000000E+00
  0.00000000E+00  0.00000000E+00  0.00000000E+00
  0.00000000E+00  0.00000000E+00  0.00000000E+00
  0.00000000E+00  0.00000000E+00  0.00000000E+00
  0.00000000E+00  0.00000000E+00  0.00000000E+00
  0.00000000E+00  0.00000000E+00  0.00000000E+00
  0.00000000E+00  0.00000000E+00  0.00000000E+00
  0.00000000E+00  0.00000000E+00  0.00000000E+00
  0.00000000E+00  0.00000000E+00  0.00000000E+00
  0.00000000E+00  0.00000000E+00  0.00000000E+00
  0.00000000E+00  0.00000000E+00  0.00000000E+00
  0.00000000E+00  0.00000000E+00  0.00000000E+00
  0.00000000E+00  0.00000000E+00  0.00000000E+00
  0.00000000E+00  0.00000000E+00  0.00000000E+00
  0.00000000E+00  0.00000000E+00  0.00000000E+00
  0.00000000E+00  0.00000000E+00  0.00000000E+00
  0.00000000E+00  0.00000000E+00  0.00000000E+00
  0.00000000E+00  0.00000000E+00  0.00000000E+00
  0.00000000E+00  0.00000000E+00  0.00000000E+00
  0.00000000E+00  0.00000000E+00  0.00000000E+00
  0.00000000E+00  0.00000000E+00  0.00000000E+00
  0.00000000E+00  0.00000000E+00  0.00000000E+00
  0.00000000E+00  0.00000000E+00  0.00000000E+00
  0.00000000E+00  0.00000000E+00  0.00000000E+00
  0.00000000E+00  0.00000000E+00  0.00000000E+00
  0.00000000E+00  0.00000000E+00  0.00000000E+00
  0.00000000E+00  0.00000000E+00  0.00000000E+00
  0.00000000E+00  0.00000000E+00  0.00000000E+00
  0.00000000E+00  0.00000000E+00  0.00000000E+00
  0.00000000E+00  0.00000000E+00  0.00000000E+00
  0.00000000E+00  0.00000000E+00  0.00000000E+00
  0.00000000E+00  0.00000000E+00  0.00000000E+00
  0.00000000E+00  0.00000000E+00  0.00000000E+00
  0.00000000E+00  0.00000000E+00  0.00000000E+00
  0.00000000E+00  0.00000000E+00  0.00000000E+00
  0.00000000E+00  0.00000000E+00  0.00000000E+00
  0.00000000E+00  0.00000000E+00  0.00000000E+00
  0.00000000E+00  0.00000000E+00  0.00000000E+00
  0.00000000E+00  0.00000000E+00  0.00000000E+00
  0.00000000E+00  0.00000000E+00  0.00000000E+00
  0.00000000E+00  0.00000000E+00  0.00000000E+00
  0.00000000E+00  0.00000000E+00  0.00000000E+00
