C4                                      
    1.000000000000000     
    17.2710380553999983    0.0000000000000000    0.0000000000000000
    -8.6355190276999991   14.9571577057000002    0.0000000000000000
     0.0000000000000000    0.0000000000000000   15.0000000000000000
   C    F    N 
    84     4     4
Direct
 -0.0000318638692431 -0.0000793097291453  0.2499995525713107
 -0.0007139469078284  0.1424043154628311  0.2500001461621879
 -0.0013563344504368  0.2850491538540605  0.2500001117774463
 -0.0008136721045927  0.4283020851174754  0.2500004450284980
 -0.0001019038999461  0.5714252269206911  0.2499969843834785
  0.0005162933059571  0.7143838089195248  0.2499977174185938
  0.0005253865345856  0.8575369227141061  0.2499995194485682
  0.1437827935613980  0.0010324649196506  0.2499999094201850
  0.1429739053200879  0.1436384764172859  0.2499985656965694
  0.1404820326934957  0.2847036959321013  0.2499992943196268
  0.1404584542841663  0.4272064631759758  0.2500004678711091
  0.1429283186234021  0.5707691752310911  0.2499982927752429
  0.1437331889028064  0.7141253062694212  0.2499974783115938
  0.1437795976349031  0.8575827841649569  0.2500001855848284
  0.2866144742691186  0.0011619187234175  0.2500011933114282
  0.2867057654881383  0.1456739659949143  0.2500013452810378
  0.2852735217065835  0.2921754819893310  0.2499981232791720
  0.2821444725665957  0.4267873752844538  0.2500008052409465
  0.2852663840426371  0.5645624705330169  0.2499983556355505
  0.2866747376817519  0.7124509278379278  0.2500010823380543
  0.2866422895086215  0.8568892687260209  0.2500012097580125
  0.4289804038332355  0.0002784471337662  0.2500022737228499
  0.4296909034385927  0.1449999941007380  0.2500039957714091
  0.4279102754471658  0.2852694229218015  0.2500008013431468
  0.4279432635293530  0.7141753762784083  0.2499820715985058
  0.4297177872303982  0.8562527396525835  0.2500007900529641
  0.5714448184249598  0.0001391823883605  0.2500008910461858
  0.5714476468953795  0.1429389595091905  0.2500036112595519
  0.5756002547234809  0.2890566952586516  0.2500009250896739
  0.5756090519298944  0.8580807528490318  0.2499997349210712
  0.7146143793583097  0.0008546132379497  0.2500002097474360
  0.7141333717105609  0.1428393868759333  0.2499999811051066
  0.7145442788034359  0.2852144446945201  0.2500001925253475
  0.7110928824632977  0.4242613883107285  0.2500000759727766
  0.7165885339642813  0.5721883865324785  0.2500141655671446
  0.7165958613969601  0.7160499920328107  0.2500062437425849
  0.7111194296735065  0.8583999422457380  0.2500018291129030
  0.8570313676410047  0.0000643526365437  0.2499995815742210
  0.8567085173134870  0.1427279926837858  0.2499989235145716
  0.8566239537006688  0.2854364551223385  0.2499995846095063
  0.8569380315338110  0.4284272967140295  0.2499980737293797
  0.8562353978134094  0.5708780432855862  0.2499955373576634
  0.8578362006217137  0.7146854537843268  0.2499997069639116
  0.8562661419763242  0.8568782242547855  0.2500012975100805
  0.0475412496795473  0.0953261070446359  0.2499988566357053
  0.0456870245854174  0.2371089192936805  0.2499998781131446
  0.0456404323130925  0.3800030781566796  0.2500002784493899
  0.0474676009327175  0.5236343899292177  0.2499983654326724
  0.0481691375318681  0.6667658157421791  0.2499965864995763
  0.0482024487080321  0.8097829288457549  0.2499988332188518
  0.0482139368162597  0.9528049547336742  0.2500005211273088
  0.1911425693438165  0.0964287340126703  0.2499993707890947
  0.1893143904206877  0.2388851572554365  0.2499984233847191
  0.1868879116876257  0.3791440092336005  0.2500004273029689
  0.1892887650198172  0.5218905668065067  0.2500000565989867
  0.1910952481923836  0.6661378154766346  0.2499991327855610
  0.1913787460888699  0.8096513376229912  0.2499995494940712
  0.1913626889336443  0.9531044321072500  0.2499999331468469
  0.3342728749722754  0.0974016024964315  0.2500033114213848
  0.3340020146206896  0.2420580366750739  0.2499984025957659
  0.3339963617172592  0.6634304585154170  0.2499944254571804
  0.3343120213558341  0.8083387544939212  0.2500023670865770
  0.3337186805082423  0.9525619396274883  0.2499995899993375
  0.4764383856490859  0.0958718127210560  0.2500045794491773
  0.4780877533561529  0.2409062672508397  0.2500010050177636
  0.4781185371853031  0.8087290889416270  0.2499969227000761
  0.4764385966125894  0.9521552002928525  0.2500029340467225
  0.6187904180917080  0.0951999833917121  0.2500025416819585
  0.6198028128131361  0.2381248275413288  0.2500020031020613
  0.6198336948740304  0.9532674744583207  0.2500014690812928
  0.7618928697309763  0.0957405936258133  0.2499990381924450
  0.7618580060360942  0.2376684621325287  0.2499995679914808
  0.7618925779070639  0.3799944696390161  0.2499985021785410
  0.7599025970204089  0.5221845167221262  0.2499990518735817
  0.7621984410241586  0.6669184993277679  0.2500031251496002
  0.7599343593146798  0.8093376299240076  0.2500031211772905
  0.7619871924137217  0.9534412408295008  0.2500002893225561
  0.9042350818726101  0.0948281011960516  0.2499985365929298
  0.9038546174343406  0.2376849982507261  0.2499991473815222
  0.9041304103293825  0.3808361886784707  0.2499994623844571
  0.9044435961991267  0.5238250058052506  0.2499960090773157
  0.9046854202245582  0.6663957108655648  0.2499984796938295
  0.9047535634009147  0.8098353349113768  0.2500002850242460
  0.9045024229398295  0.9521295457914994  0.2499994498703512
  0.4723985861498255  0.3743377182618285  0.2499961431642074
  0.6273076148790795  0.6693601981264007  0.2500154642618858
  0.6273006529576458  0.5297588702242638  0.2500477392787663
  0.4723996347335986  0.6695567306364797  0.2499412048825771
  0.3286805803049821  0.3821176297556098  0.2500002561374817
  0.3286573179512451  0.5180134226486995  0.2500011389843092
  0.6216285406427465  0.3789914899517842  0.2500005426189330
  0.6216615378235212  0.8142187150294624  0.2500023966920629
 
  0.00000000E+00  0.00000000E+00  0.00000000E+00
  0.00000000E+00  0.00000000E+00  0.00000000E+00
  0.00000000E+00  0.00000000E+00  0.00000000E+00
  0.00000000E+00  0.00000000E+00  0.00000000E+00
  0.00000000E+00  0.00000000E+00  0.00000000E+00
  0.00000000E+00  0.00000000E+00  0.00000000E+00
  0.00000000E+00  0.00000000E+00  0.00000000E+00
  0.00000000E+00  0.00000000E+00  0.00000000E+00
  0.00000000E+00  0.00000000E+00  0.00000000E+00
  0.00000000E+00  0.00000000E+00  0.00000000E+00
  0.00000000E+00  0.00000000E+00  0.00000000E+00
  0.00000000E+00  0.00000000E+00  0.00000000E+00
  0.00000000E+00  0.00000000E+00  0.00000000E+00
  0.00000000E+00  0.00000000E+00  0.00000000E+00
  0.00000000E+00  0.00000000E+00  0.00000000E+00
  0.00000000E+00  0.00000000E+00  0.00000000E+00
  0.00000000E+00  0.00000000E+00  0.00000000E+00
  0.00000000E+00  0.00000000E+00  0.00000000E+00
  0.00000000E+00  0.00000000E+00  0.00000000E+00
  0.00000000E+00  0.00000000E+00  0.00000000E+00
  0.00000000E+00  0.00000000E+00  0.00000000E+00
  0.00000000E+00  0.00000000E+00  0.00000000E+00
  0.00000000E+00  0.00000000E+00  0.00000000E+00
  0.00000000E+00  0.00000000E+00  0.00000000E+00
  0.00000000E+00  0.00000000E+00  0.00000000E+00
  0.00000000E+00  0.00000000E+00  0.00000000E+00
  0.00000000E+00  0.00000000E+00  0.00000000E+00
  0.00000000E+00  0.00000000E+00  0.00000000E+00
  0.00000000E+00  0.00000000E+00  0.00000000E+00
  0.00000000E+00  0.00000000E+00  0.00000000E+00
  0.00000000E+00  0.00000000E+00  0.00000000E+00
  0.00000000E+00  0.00000000E+00  0.00000000E+00
  0.00000000E+00  0.00000000E+00  0.00000000E+00
  0.00000000E+00  0.00000000E+00  0.00000000E+00
  0.00000000E+00  0.00000000E+00  0.00000000E+00
  0.00000000E+00  0.00000000E+00  0.00000000E+00
  0.00000000E+00  0.00000000E+00  0.00000000E+00
  0.00000000E+00  0.00000000E+00  0.00000000E+00
  0.00000000E+00  0.00000000E+00  0.00000000E+00
  0.00000000E+00  0.00000000E+00  0.00000000E+00
  0.00000000E+00  0.00000000E+00  0.00000000E+00
  0.00000000E+00  0.00000000E+00  0.00000000E+00
  0.00000000E+00  0.00000000E+00  0.00000000E+00
  0.00000000E+00  0.00000000E+00  0.00000000E+00
  0.00000000E+00  0.00000000E+00  0.00000000E+00
  0.00000000E+00  0.00000000E+00  0.00000000E+00
  0.00000000E+00  0.00000000E+00  0.00000000E+00
  0.00000000E+00  0.00000000E+00  0.00000000E+00
  0.00000000E+00  0.00000000E+00  0.00000000E+00
  0.00000000E+00  0.00000000E+00  0.00000000E+00
  0.00000000E+00  0.00000000E+00  0.00000000E+00
  0.00000000E+00  0.00000000E+00  0.00000000E+00
  0.00000000E+00  0.00000000E+00  0.00000000E+00
  0.00000000E+00  0.00000000E+00  0.00000000E+00
  0.00000000E+00  0.00000000E+00  0.00000000E+00
  0.00000000E+00  0.00000000E+00  0.00000000E+00
  0.00000000E+00  0.00000000E+00  0.00000000E+00
  0.00000000E+00  0.00000000E+00  0.00000000E+00
  0.00000000E+00  0.00000000E+00  0.00000000E+00
  0.00000000E+00  0.00000000E+00  0.00000000E+00
  0.00000000E+00  0.00000000E+00  0.00000000E+00
  0.00000000E+00  0.00000000E+00  0.00000000E+00
  0.00000000E+00  0.00000000E+00  0.00000000E+00
  0.00000000E+00  0.00000000E+00  0.00000000E+00
  0.00000000E+00  0.00000000E+00  0.00000000E+00
  0.00000000E+00  0.00000000E+00  0.00000000E+00
  0.00000000E+00  0.00000000E+00  0.00000000E+00
  0.00000000E+00  0.00000000E+00  0.00000000E+00
  0.00000000E+00  0.00000000E+00  0.00000000E+00
  0.00000000E+00  0.00000000E+00  0.00000000E+00
  0.00000000E+00  0.00000000E+00  0.00000000E+00
  0.00000000E+00  0.00000000E+00  0.00000000E+00
  0.00000000E+00  0.00000000E+00  0.00000000E+00
  0.00000000E+00  0.00000000E+00  0.00000000E+00
  0.00000000E+00  0.00000000E+00  0.00000000E+00
  0.00000000E+00  0.00000000E+00  0.00000000E+00
  0.00000000E+00  0.00000000E+00  0.00000000E+00
  0.00000000E+00  0.00000000E+00  0.00000000E+00
  0.00000000E+00  0.00000000E+00  0.00000000E+00
  0.00000000E+00  0.00000000E+00  0.00000000E+00
  0.00000000E+00  0.00000000E+00  0.00000000E+00
  0.00000000E+00  0.00000000E+00  0.00000000E+00
  0.00000000E+00  0.00000000E+00  0.00000000E+00
  0.00000000E+00  0.00000000E+00  0.00000000E+00
  0.00000000E+00  0.00000000E+00  0.00000000E+00
  0.00000000E+00  0.00000000E+00  0.00000000E+00
  0.00000000E+00  0.00000000E+00  0.00000000E+00
  0.00000000E+00  0.00000000E+00  0.00000000E+00
  0.00000000E+00  0.00000000E+00  0.00000000E+00
  0.00000000E+00  0.00000000E+00  0.00000000E+00
  0.00000000E+00  0.00000000E+00  0.00000000E+00
  0.00000000E+00  0.00000000E+00  0.00000000E+00
