C4                                      
    1.000000000000000     
    17.2710380553999983    0.0000000000000000    0.0000000000000000
    -8.6355190276999991   14.9571577057000002    0.0000000000000000
     0.0000000000000000    0.0000000000000000   15.0000000000000000
   C    H    N 
    87     7     1
Direct
  0.0002956224651932  0.0000054795059563  0.2499998934716681
  0.9994890387604266  0.1424338569948897  0.2499998263422450
  0.9990445586674773  0.2851662735246125  0.2499999735190062
  0.9991259549930641  0.4282802900489691  0.2499999085078272
  0.9994923778416788  0.5714670557585504  0.2499998789397175
  0.0007803615100699  0.7148575545691261  0.2499998149048799
  0.0016793847910172  0.8580480666592241  0.2499999188606349
  0.1435897622846515  0.0004822795046369  0.2499999649057640
  0.1427524811753531  0.1429890315625687  0.2499999244931174
  0.1416088582597910  0.2849674782373777  0.2500002127064898
  0.1414484814623697  0.4279444913007326  0.2500000195039099
  0.1422351651236884  0.5710001654523018  0.2499996982514419
  0.1430024106943269  0.7142308526459925  0.2499999931417013
  0.1436704078894119  0.8574228020486451  0.2499999792496345
  0.2859856958754598  0.9998046417121013  0.2500000632437238
  0.2857509420470704  0.1426557160107611  0.2499999942337142
  0.2855789094513478  0.2869274194004836  0.2499994635098506
  0.2833469684402887  0.4274342773471129  0.2500001933472000
  0.2852734757546843  0.5700300821227593  0.2500004024810751
  0.2854035260528618  0.7142649461307278  0.2500001856862951
  0.2858949913637852  0.8571849253560505  0.2499999432239657
  0.4289333647977431  0.9997941882614733  0.2500000217472363
  0.4286344294557807  0.1424193094600016  0.2500001432930447
  0.4267019164383098  0.2820138584354708  0.2500000389271624
  0.4265539700041088  0.7155746705044118  0.2500002103617440
  0.4286329140359768  0.8569011742615419  0.2499998760802919
  0.5716117548400130 -0.0005259022955859  0.2499998970998236
  0.5715743668974191  0.1423811816240610  0.2500001757526602
  0.5722131614837230  0.2859800298178727  0.2500001830479294
  0.5725664187035724  0.8562086144740348  0.2499997927767369
  0.7144410532274077  0.9989739871491643  0.2499998718358471
  0.7143374997559847  0.1424971091493192  0.2500000405686484
  0.7141720190899262  0.2859849567342632  0.2500001314379456
  0.7134320788591957  0.4288988571754121  0.2500000379098676
  0.7171791964861332  0.5764124075487022  0.2499999225637848
  0.7141436326140984  0.8555149411162654  0.2499998670548213
  0.8571720352223025 -0.0004427119592284  0.2499998895467056
  0.8567371227097739  0.1423564072977729  0.2499998914657610
  0.8565139003231500  0.2854012626360394  0.2499999347957219
  0.8566913791293324  0.4287530925460113  0.2499998974668422
  0.8569461358986722  0.5724968350716578  0.2499998028341582
  0.8591512836987713  0.7161966631154129  0.2499997896599966
  0.8583047385537245  0.8570416275113641  0.2499998812748617
  0.0476444786962023  0.0952558457461075  0.2499998551795036
  0.0463777517308598  0.2373172450921983  0.2499999574741776
  0.0462005465296535  0.3803494570654254  0.2499999204457732
  0.0470392900175263  0.5236328637662112  0.2499998004841307
  0.0477407449194654  0.6668499389227479  0.2499998693452138
  0.0486220729051020  0.8099764044429139  0.2499999101640457
  0.0484752917005822  0.9528556710965866  0.2499999479514771
  0.1905822312414265  0.0952484652684893  0.2499999020490723
  0.1897764466114657  0.2380280669813845  0.2500000539530212
  0.1880737003024861  0.3797347929460583  0.2500004163001864
  0.1894359774372342  0.5230820729721831  0.2499999772548364
  0.1901246653620750  0.6665400935843939  0.2499999833954542
  0.1909304430078787  0.8096495671919709  0.2499999831789766
  0.1910936648801735  0.9525119813130477  0.2500000233529378
  0.3335374769718494  0.0952270547990580  0.2500000761328154
  0.3338621429341166  0.2378895478949984  0.2499999372212570
  0.3296082133155729  0.3796619309032885  0.2500011222862869
  0.3294436885027028  0.5214231967253171  0.2500008995612383
  0.3336387495326043  0.6672672566190844  0.2500003173489143
  0.3334596143116807  0.8093799531991381  0.2499999899875411
  0.3334945711099667  0.9522046287146158  0.2500000036155771
  0.4764315351443251  0.0948020691297046  0.2500001503393043
  0.4755457091681018  0.2375239520325735  0.2500001353840627
  0.4757074511883597  0.8087400009189074  0.2499999214252465
  0.4764520545930135  0.9521773154630593  0.2499998863990645
  0.6189641967989207  0.0946399104601395  0.2500000567416556
  0.6191704282567151  0.2378166967287420  0.2500002110873799
  0.6206319293724366  0.3793988792803656  0.2500001150882465
  0.6212244594199169  0.8110472196611250  0.2499998489326824
  0.6193440578566599  0.9515483365470269  0.2499998120079352
  0.7618132214056421  0.0947000173309843  0.2499999350214885
  0.7616045814021298  0.2378314512127480  0.2500000509818198
  0.7616111621629448  0.3814403015321570  0.2500000318697649
  0.7610414543999782  0.5267340257600663  0.2499999070131748
  0.7635813955147640  0.6709953535542879  0.2499998623866266
  0.7625326172406348  0.8056660707453606  0.2499998901604260
  0.7620793380582077  0.9511769632710895  0.2499998715665269
  0.9043020303412637  0.0944857263974577  0.2499998546086392
  0.9039606363703933  0.2375989092157915  0.2499999162434298
  0.9039302190176577  0.3809314024925816  0.2499999057328264
  0.9042018930040113  0.5243178427480314  0.2499998487418172
  0.9053845245534335  0.6675183189045507  0.2499997616669687
  0.9066962498108486  0.8107037434111743  0.2499998517640553
  0.9050662512061772  0.9520930707516437  0.2499998974441284
  0.4628618421541669  0.3545128613416783  0.2500000135377518
  0.4023447960105241  0.4188422395845730  0.2499998638650393
  0.4021787711173040  0.5551158008288510  0.2500008578274978
  0.6445182911288365  0.5438723958929748  0.2500000243844008
  0.5843254096838446  0.4156288033924196  0.2500000487113743
  0.5878178744090199  0.7383972000145539  0.2499999443393603
  0.4628123145603499  0.6793339227745747  0.2500001129240244
  0.7171971086203313  0.7160774065571108  0.2499999240287747
 
  0.00000000E+00  0.00000000E+00  0.00000000E+00
  0.00000000E+00  0.00000000E+00  0.00000000E+00
  0.00000000E+00  0.00000000E+00  0.00000000E+00
  0.00000000E+00  0.00000000E+00  0.00000000E+00
  0.00000000E+00  0.00000000E+00  0.00000000E+00
  0.00000000E+00  0.00000000E+00  0.00000000E+00
  0.00000000E+00  0.00000000E+00  0.00000000E+00
  0.00000000E+00  0.00000000E+00  0.00000000E+00
  0.00000000E+00  0.00000000E+00  0.00000000E+00
  0.00000000E+00  0.00000000E+00  0.00000000E+00
  0.00000000E+00  0.00000000E+00  0.00000000E+00
  0.00000000E+00  0.00000000E+00  0.00000000E+00
  0.00000000E+00  0.00000000E+00  0.00000000E+00
  0.00000000E+00  0.00000000E+00  0.00000000E+00
  0.00000000E+00  0.00000000E+00  0.00000000E+00
  0.00000000E+00  0.00000000E+00  0.00000000E+00
  0.00000000E+00  0.00000000E+00  0.00000000E+00
  0.00000000E+00  0.00000000E+00  0.00000000E+00
  0.00000000E+00  0.00000000E+00  0.00000000E+00
  0.00000000E+00  0.00000000E+00  0.00000000E+00
  0.00000000E+00  0.00000000E+00  0.00000000E+00
  0.00000000E+00  0.00000000E+00  0.00000000E+00
  0.00000000E+00  0.00000000E+00  0.00000000E+00
  0.00000000E+00  0.00000000E+00  0.00000000E+00
  0.00000000E+00  0.00000000E+00  0.00000000E+00
  0.00000000E+00  0.00000000E+00  0.00000000E+00
  0.00000000E+00  0.00000000E+00  0.00000000E+00
  0.00000000E+00  0.00000000E+00  0.00000000E+00
  0.00000000E+00  0.00000000E+00  0.00000000E+00
  0.00000000E+00  0.00000000E+00  0.00000000E+00
  0.00000000E+00  0.00000000E+00  0.00000000E+00
  0.00000000E+00  0.00000000E+00  0.00000000E+00
  0.00000000E+00  0.00000000E+00  0.00000000E+00
  0.00000000E+00  0.00000000E+00  0.00000000E+00
  0.00000000E+00  0.00000000E+00  0.00000000E+00
  0.00000000E+00  0.00000000E+00  0.00000000E+00
  0.00000000E+00  0.00000000E+00  0.00000000E+00
  0.00000000E+00  0.00000000E+00  0.00000000E+00
  0.00000000E+00  0.00000000E+00  0.00000000E+00
  0.00000000E+00  0.00000000E+00  0.00000000E+00
  0.00000000E+00  0.00000000E+00  0.00000000E+00
  0.00000000E+00  0.00000000E+00  0.00000000E+00
  0.00000000E+00  0.00000000E+00  0.00000000E+00
  0.00000000E+00  0.00000000E+00  0.00000000E+00
  0.00000000E+00  0.00000000E+00  0.00000000E+00
  0.00000000E+00  0.00000000E+00  0.00000000E+00
  0.00000000E+00  0.00000000E+00  0.00000000E+00
  0.00000000E+00  0.00000000E+00  0.00000000E+00
  0.00000000E+00  0.00000000E+00  0.00000000E+00
  0.00000000E+00  0.00000000E+00  0.00000000E+00
  0.00000000E+00  0.00000000E+00  0.00000000E+00
  0.00000000E+00  0.00000000E+00  0.00000000E+00
  0.00000000E+00  0.00000000E+00  0.00000000E+00
  0.00000000E+00  0.00000000E+00  0.00000000E+00
  0.00000000E+00  0.00000000E+00  0.00000000E+00
  0.00000000E+00  0.00000000E+00  0.00000000E+00
  0.00000000E+00  0.00000000E+00  0.00000000E+00
  0.00000000E+00  0.00000000E+00  0.00000000E+00
  0.00000000E+00  0.00000000E+00  0.00000000E+00
  0.00000000E+00  0.00000000E+00  0.00000000E+00
  0.00000000E+00  0.00000000E+00  0.00000000E+00
  0.00000000E+00  0.00000000E+00  0.00000000E+00
  0.00000000E+00  0.00000000E+00  0.00000000E+00
  0.00000000E+00  0.00000000E+00  0.00000000E+00
  0.00000000E+00  0.00000000E+00  0.00000000E+00
  0.00000000E+00  0.00000000E+00  0.00000000E+00
  0.00000000E+00  0.00000000E+00  0.00000000E+00
  0.00000000E+00  0.00000000E+00  0.00000000E+00
  0.00000000E+00  0.00000000E+00  0.00000000E+00
  0.00000000E+00  0.00000000E+00  0.00000000E+00
  0.00000000E+00  0.00000000E+00  0.00000000E+00
  0.00000000E+00  0.00000000E+00  0.00000000E+00
  0.00000000E+00  0.00000000E+00  0.00000000E+00
  0.00000000E+00  0.00000000E+00  0.00000000E+00
  0.00000000E+00  0.00000000E+00  0.00000000E+00
  0.00000000E+00  0.00000000E+00  0.00000000E+00
  0.00000000E+00  0.00000000E+00  0.00000000E+00
  0.00000000E+00  0.00000000E+00  0.00000000E+00
  0.00000000E+00  0.00000000E+00  0.00000000E+00
  0.00000000E+00  0.00000000E+00  0.00000000E+00
  0.00000000E+00  0.00000000E+00  0.00000000E+00
  0.00000000E+00  0.00000000E+00  0.00000000E+00
  0.00000000E+00  0.00000000E+00  0.00000000E+00
  0.00000000E+00  0.00000000E+00  0.00000000E+00
  0.00000000E+00  0.00000000E+00  0.00000000E+00
  0.00000000E+00  0.00000000E+00  0.00000000E+00
  0.00000000E+00  0.00000000E+00  0.00000000E+00
  0.00000000E+00  0.00000000E+00  0.00000000E+00
  0.00000000E+00  0.00000000E+00  0.00000000E+00
  0.00000000E+00  0.00000000E+00  0.00000000E+00
  0.00000000E+00  0.00000000E+00  0.00000000E+00
  0.00000000E+00  0.00000000E+00  0.00000000E+00
  0.00000000E+00  0.00000000E+00  0.00000000E+00
  0.00000000E+00  0.00000000E+00  0.00000000E+00
  0.00000000E+00  0.00000000E+00  0.00000000E+00
