C    H    N    O 
    1.000000000000000     
  17.2710380553999983   0.0000000000000000   0.0000000000000000
  -8.6355190276999991  14.9571577057000002   0.0000000000000000
   0.0000000000000000   0.0000000000000000  15.0000000000000000
C    H    N    O 
84  6  4  1  
Selective dynamics
Direct
  0.9999535716525479  0.9998433828894440  0.5003707521927576 T T T
  0.9992815272701340  0.1421377393329345  0.5002363048170914 T T T
  0.9993803593999302  0.2853180016623505  0.5002191394569580 T T T
  0.9997831597552538  0.4283999269029005  0.5005207879433613 T T T
  0.9997984968821344  0.5713326357929250  0.5005536253793879 T T T
  0.0002615020278093  0.7142915357846404  0.5001243322829304 T T T
  0.0012094607254585  0.8578679400430538  0.5002112462621903 T T T
  0.1439239703390480  0.0015415744529526  0.5004092246246442 T T T
  0.1432668613858256  0.1438939876421219  0.4999730004275956 T T T
  0.1417993053832360  0.2854750422837660  0.4995864785805080 T T T
  0.1430065990276976  0.4289206456305226  0.4994295763897989 T T T
  0.1433013208174196  0.5713819660264871  0.5000904640165508 T T T
  0.1432277140116256  0.7144142494250492  0.5005224569432866 T T T
  0.1435392714042170  0.8579767927311555  0.5005374763400413 T T T
  0.2866356160595053  0.0017358148384001  0.5003335830622966 T T T
  0.2871376135108127  0.1457926968110766  0.4996268500244166 T T T
  0.2866561570632343  0.2912016925818222  0.4992120609109359 T T T
  0.2852542370231260  0.4263039694370738  0.4985215436319138 T T T
  0.2880571581765626  0.5709319083249346  0.4982295963646618 T T T
  0.2861820604655856  0.7148056144756426  0.4996852149071084 T T T
  0.2857379271945724  0.8580724235935000  0.5004824932618692 T T T
  0.4290009836235050  0.0007144563845702  0.5005476097893576 T T T
  0.4301284275405710  0.1452545936534011  0.4997111121916912 T T T
  0.4293459626904448  0.2866558777787158  0.4984439384324740 T T T
  0.4277702358587348  0.8567195774755496  0.4998714137135569 T T T
  0.5709688006339594  0.9990989565455712  0.5002646360861415 T T T
  0.5716854910058010  0.1428454885561693  0.5003686645137349 T T T
  0.5755139062097538  0.2895587782762243  0.4988811328558764 T T T
  0.5699610962908810  0.8540881463510349  0.4988223058729777 T T T
  0.7130336396043859  0.9974220864760202  0.4998722445516968 T T T
  0.7140816580028531  0.1417346381374442  0.5005244979381891 T T T
  0.7146330452910549  0.2852828692319201  0.5001357256088932 T T T
  0.7106307555321379  0.4253863610668440  0.4985860308969867 T T T
  0.7154461698872984  0.5736897964653457  0.4977386942175963 T T T
  0.7118643664519634  0.8533417988198150  0.4991364912797308 T T T
  0.8561589795787468  0.9984287201158686  0.5000063170616029 T T T
  0.8562684645945029  0.1416271007632769  0.5003390511574085 T T T
  0.8568394148691093  0.2850659290878540  0.5005946770672587 T T T
  0.8568331438535650  0.4282936681702085  0.5002323089006410 T T T
  0.8559875208742168  0.5708800239103086  0.4992519304083057 T T T
  0.8581191559490799  0.7148351717891392  0.4990553407733066 T T T
  0.8573098015673278  0.8559641231103551  0.4994759659900318 T T T
  0.0477348288824729  0.0953245207447125  0.5002872584172022 T T T
  0.0464278768014574  0.2373380747783020  0.5000405948314266 T T T
  0.0472551109561386  0.3808200691658128  0.5001049260158028 T T T
  0.0477800257085047  0.5238077568878514  0.5005576098389243 T T T
  0.0477712292684596  0.6667502327479849  0.5005065242499958 T T T
  0.0481819937486272  0.8098098301513150  0.5003388659763939 T T T
  0.0484031996647949  0.9530348712251576  0.5004229474663778 T T T
  0.1915464569506855  0.0968120174731001  0.5000380097186596 T T T
  0.1903830289173299  0.2392706141210874  0.4994594273195013 T T T
  0.1894452858095636  0.3803570928986293  0.4990744759502890 T T T
  0.1915871384579390  0.5243108901987636  0.4992730608572009 T T T
  0.1908008031100954  0.6668733078493849  0.5001553562932264 T T T
  0.1907949178298001  0.8101156560726933  0.5005476992382720 T T T
  0.1913981159844506  0.9535715449444390  0.5004614190604483 T T T
  0.3346812063712210  0.0978410011223303  0.4998406349890938 T T T
  0.3358767471750888  0.2419321187618650  0.4991153164872768 T T T
  0.3320593298034178  0.5215091506623990  0.4975585858374893 T T T
  0.3370505346629831  0.6698292807839451  0.4985057727263716 T T T
  0.3330095873238973  0.8098584246182862  0.5000557609472390 T T T
  0.3335879938058297  0.9534086579472484  0.5005241375190098 T T T
  0.4766896092166785  0.0960982546652297  0.5002916835531751 T T T
  0.4777328792736541  0.2411704990916103  0.4988931936924396 T T T
  0.4722105997385561  0.8056641417694158  0.4987710815403190 T T T
  0.4759778837134856  0.9523158404231492  0.5003827384720407 T T T
  0.6186985492534014  0.0944666772205233  0.5005044978673883 T T T
  0.6198984980651493  0.2384621571080468  0.4999143336061976 T T T
  0.6183841013474426  0.8086312708897566  0.4983571165104388 T T T
  0.6175894486272366  0.9499889762079352  0.4996856918167096 T T T
  0.7610847648600573  0.0934660937862160  0.5003309568054053 T T T
  0.7619215397474777  0.2370645737807395  0.5005536441495964 T T T
  0.7614663359656750  0.3803776408294331  0.4997412285290330 T T T
  0.7594769546558994  0.5242739992229751  0.4982869533879924 T T T
  0.7623309839224427  0.6689148855963641  0.4985742616026646 T T T
  0.7610140921565305  0.8040518319308367  0.4992659699296710 T T T
  0.7605498778684019  0.9494676809454456  0.4996775304694028 T T T
  0.9037460771964032  0.0936950226542497  0.5002277220173432 T T T
  0.9040799373446128  0.2371835468685855  0.5004522449332609 T T T
  0.9043368791842784  0.3806888097697510  0.5005895556920178 T T T
  0.9042604509117896  0.5237838895461990  0.5001004253860669 T T T
  0.9045182838071676  0.6662632046649265  0.4993903740228827 T T T
  0.9058308329281262  0.8097162421637837  0.4996398641596357 T T T
  0.9044056041613848  0.9513224278466724  0.4999843761406134 T T T
  0.4663992684550516  0.3594080569185356  0.4976903407529495 T T T
  0.4048645813610420  0.5575273588647510  0.4973368161627159 T T T
  0.6426360545602772  0.5376504019307464  0.4977521250843301 T T T
  0.5813017799543452  0.7358748155287519  0.4975464532509640 T T T
  0.5663487518169390  0.5940767495026548  0.5656282857080811 T T T
  0.4799280570831339  0.5002045602523816  0.5654125018840681 T T T
  0.4269359483628675  0.7152129307866417  0.4977848825154521 T T T
  0.7160883849618366  0.7142524511188750  0.4993049048689765 T T T
  0.3315359611972963  0.3809934448758979  0.4992158117616937 T T T
  0.6207467002709915  0.3799760149566666  0.4978773570856032 T T T
  0.5231465783120063  0.5470210172985944  0.6046639079999991 T T F
