C4                                      
    1.000000000000000     
    17.2710380553999983    0.0000000000000000    0.0000000000000000
    -8.6355190276999991   14.9571577057000002    0.0000000000000000
     0.0000000000000000    0.0000000000000000   15.0000000000000000
   C    H    F 
    88     7     1
Direct
 -0.0004706203017312 -0.0004878101497222  0.2500002784702609
  0.9993806656567612  0.1423972161842210  0.2500000281798214
  0.9994039194320444  0.2853090170389016  0.2499994811305650
  0.9997909635409765  0.4284098527160814  0.2499999179190194
  0.0003671963699807  0.5714637502262173  0.2499975929135876
  0.0012557562599011  0.7146614864288632  0.2499985238623456
  0.0007479135165202  0.8575217864153100  0.2499997152803542
  0.1429884864994717  0.0002115039344492  0.2499995316329158
  0.1423810290896029  0.1427323758062919  0.2500001833443622
  0.1417415492108466  0.2849909494801102  0.2499989748233963
  0.1420003511871035  0.4281552166899334  0.2499995696221824
  0.1429608503717821  0.5712472076310801  0.2500005205564937
  0.1433465866922393  0.7143759107771740  0.2500000140633235
  0.1432593057565454  0.8573980249597706  0.2499996670096446
  0.2855773520820565  0.9999376796849068  0.2500008437871219
  0.2853866238736875  0.1425859985999900  0.2500005950352821
  0.2854426468956355  0.2867994278123682  0.2500002528315096
  0.2837796665083304  0.4275931223959988  0.2500007583817350
  0.2859603810796253  0.5703889806875165  0.2500011846212479
  0.2856517012331454  0.7146988665774843  0.2500010808106030
  0.2855760514046105  0.8575127990785008  0.2499995323079321
  0.4286312951385914  0.0003753875054799  0.2499997275798873
  0.4283256557432639  0.1426835681216506  0.2500004158894713
  0.4265829239168323  0.2821530267410035  0.2500002280676409
  0.4268514497861042  0.7166536864531134  0.2500006401767228
  0.4281977431242150  0.8577650965518182  0.2499994137762486
  0.5713286716342579  0.0008392029991120  0.2499993092875042
  0.5713771687933279  0.1429580160132946  0.2499999329428921
  0.5721991897848226  0.2860082955757329  0.2500007093276247
  0.5718647871811109  0.8588922866292779  0.2499998557373621
  0.7141868397298998  0.0001993919790789  0.2499995953398340
  0.7143541887605893  0.1430526479095792  0.2499991930250023
  0.7143635926643311  0.2856508781700103  0.2499999109796401
  0.7140678859820414  0.4275578265555717  0.2500002279464679
  0.7180033560397254  0.5729006269794918  0.2500003093793099
  0.7195199959202521  0.7152230302536005  0.2500033262044687
  0.7126397862697408  0.8570425772152775  0.2500002156259418
  0.8566733778781918 -0.0003163658728798  0.2500013949322800
  0.8568210544488448  0.1426660520250260  0.2499998236814106
  0.8569352510272485  0.2854782964070541  0.2499999808082137
  0.8573726893483518  0.4283869796610933  0.2499991171268973
  0.8580726653995782  0.5716892341276141  0.2499985556116049
  0.8596376547618643  0.7151326002363335  0.2499973200808795
  0.8568770746622250  0.8564083181212535  0.2500000918982383
  0.0471716077964687  0.0949080936361477  0.2500005795429763
  0.0465140537521671  0.2373212183537971  0.2499992887968807
  0.0467780264755517  0.3805130371896326  0.2499992501534779
  0.0478433717677339  0.5237418805739306  0.2499983339025069
  0.0482724930229647  0.6667976136707926  0.2499982388493658
  0.0482248247858800  0.8097799810211953  0.2499994558696898
  0.0477433314614990  0.9524050490328853  0.2499986916587066
  0.1901536648674783  0.0950254330624444  0.2500003799695445
  0.1896389988936668  0.2378488259977180  0.2499992549488854
  0.1884569175874918  0.3798376317013114  0.2500002214761741
  0.1901086563797535  0.5233361186216883  0.2500002702293375
  0.1905442404236938  0.6668071151323112  0.2500015757166434
  0.1907055470918836  0.8097794898939463  0.2499996374223746
  0.1906331071622450  0.9524685776101816  0.2499999815906437
  0.3331975051905020  0.0952997596150982  0.2500017590450715
  0.3336565490503312  0.2378216305548724  0.2500005757798137
  0.3297137950619864  0.3795626643776888  0.2500006603328483
  0.3300355846869664  0.5216538700756277  0.2500017585344387
  0.3340088373445993  0.6677863747602757  0.2500008670781983
  0.3331848170468505  0.8098516873424640  0.2499996314483228
  0.3331705838089164  0.9525308820725703  0.2499997584507533
  0.4761950623149633  0.0953154737611586  0.2500004140733502
  0.4754321737336775  0.2377386890308136  0.2500006219487503
  0.4753123960979188  0.8099908984672138  0.2500000874020808
  0.4761711126016723  0.9530379294945995  0.2500001460222530
  0.6189348506738946  0.0956469592046112  0.2499995508451666
  0.6192648785570822  0.2380534478500471  0.2500001077933894
  0.6211751560443022  0.3791579200351926  0.2500010634156977
  0.6197492720736691  0.8138173919023789  0.2499998313847385
  0.6190872392918981  0.9535460333781711  0.2499994332993083
  0.7618741926353230  0.0954874678364310  0.2499996373581904
  0.7619493771384073  0.2379849494832910  0.2499998284440917
  0.7622487879856074  0.3806701636013577  0.2499997038026892
  0.7623976340716563  0.5246168568015339  0.2499995197232354
  0.7646726272182526  0.6666561817738974  0.2499998729651436
  0.7605064126160752  0.8079264878613622  0.2500009003279694
  0.7615474070455895  0.9524157999834676  0.2500004657380764
  0.9041676296753964  0.0945973748800220  0.2500006082166749
  0.9043218893127970  0.2377899391025379  0.2499996192264584
  0.9046042056816987  0.3808764657472620  0.2500000981090712
  0.9052801146348559  0.5238882180992481  0.2499980464881948
  0.9061048798103258  0.6668672782921229  0.2499976743975064
  0.9055477103681681  0.8099017273054989  0.2499989295236676
  0.9041824321815035  0.9516250905718798  0.2500007516608073
  0.4627050348609997  0.3546534242698052  0.2500007773287701
  0.4024483083204006  0.4185517850470432  0.2500012739123032
  0.4027913992154269  0.5552418404214217  0.2500017021695883
  0.6455444601124894  0.5392549434281207  0.2500007892321571
  0.5852007870699864  0.4156814145734716  0.2500009841584201
  0.5828278204596337  0.7419548933423802  0.2499999512096577
  0.4631318078268987  0.6804327415843241  0.2500007949284989
  0.6280260654829679  0.6620537439179864  0.2499991022215735
 
  0.00000000E+00  0.00000000E+00  0.00000000E+00
  0.00000000E+00  0.00000000E+00  0.00000000E+00
  0.00000000E+00  0.00000000E+00  0.00000000E+00
  0.00000000E+00  0.00000000E+00  0.00000000E+00
  0.00000000E+00  0.00000000E+00  0.00000000E+00
  0.00000000E+00  0.00000000E+00  0.00000000E+00
  0.00000000E+00  0.00000000E+00  0.00000000E+00
  0.00000000E+00  0.00000000E+00  0.00000000E+00
  0.00000000E+00  0.00000000E+00  0.00000000E+00
  0.00000000E+00  0.00000000E+00  0.00000000E+00
  0.00000000E+00  0.00000000E+00  0.00000000E+00
  0.00000000E+00  0.00000000E+00  0.00000000E+00
  0.00000000E+00  0.00000000E+00  0.00000000E+00
  0.00000000E+00  0.00000000E+00  0.00000000E+00
  0.00000000E+00  0.00000000E+00  0.00000000E+00
  0.00000000E+00  0.00000000E+00  0.00000000E+00
  0.00000000E+00  0.00000000E+00  0.00000000E+00
  0.00000000E+00  0.00000000E+00  0.00000000E+00
  0.00000000E+00  0.00000000E+00  0.00000000E+00
  0.00000000E+00  0.00000000E+00  0.00000000E+00
  0.00000000E+00  0.00000000E+00  0.00000000E+00
  0.00000000E+00  0.00000000E+00  0.00000000E+00
  0.00000000E+00  0.00000000E+00  0.00000000E+00
  0.00000000E+00  0.00000000E+00  0.00000000E+00
  0.00000000E+00  0.00000000E+00  0.00000000E+00
  0.00000000E+00  0.00000000E+00  0.00000000E+00
  0.00000000E+00  0.00000000E+00  0.00000000E+00
  0.00000000E+00  0.00000000E+00  0.00000000E+00
  0.00000000E+00  0.00000000E+00  0.00000000E+00
  0.00000000E+00  0.00000000E+00  0.00000000E+00
  0.00000000E+00  0.00000000E+00  0.00000000E+00
  0.00000000E+00  0.00000000E+00  0.00000000E+00
  0.00000000E+00  0.00000000E+00  0.00000000E+00
  0.00000000E+00  0.00000000E+00  0.00000000E+00
  0.00000000E+00  0.00000000E+00  0.00000000E+00
  0.00000000E+00  0.00000000E+00  0.00000000E+00
  0.00000000E+00  0.00000000E+00  0.00000000E+00
  0.00000000E+00  0.00000000E+00  0.00000000E+00
  0.00000000E+00  0.00000000E+00  0.00000000E+00
  0.00000000E+00  0.00000000E+00  0.00000000E+00
  0.00000000E+00  0.00000000E+00  0.00000000E+00
  0.00000000E+00  0.00000000E+00  0.00000000E+00
  0.00000000E+00  0.00000000E+00  0.00000000E+00
  0.00000000E+00  0.00000000E+00  0.00000000E+00
  0.00000000E+00  0.00000000E+00  0.00000000E+00
  0.00000000E+00  0.00000000E+00  0.00000000E+00
  0.00000000E+00  0.00000000E+00  0.00000000E+00
  0.00000000E+00  0.00000000E+00  0.00000000E+00
  0.00000000E+00  0.00000000E+00  0.00000000E+00
  0.00000000E+00  0.00000000E+00  0.00000000E+00
  0.00000000E+00  0.00000000E+00  0.00000000E+00
  0.00000000E+00  0.00000000E+00  0.00000000E+00
  0.00000000E+00  0.00000000E+00  0.00000000E+00
  0.00000000E+00  0.00000000E+00  0.00000000E+00
  0.00000000E+00  0.00000000E+00  0.00000000E+00
  0.00000000E+00  0.00000000E+00  0.00000000E+00
  0.00000000E+00  0.00000000E+00  0.00000000E+00
  0.00000000E+00  0.00000000E+00  0.00000000E+00
  0.00000000E+00  0.00000000E+00  0.00000000E+00
  0.00000000E+00  0.00000000E+00  0.00000000E+00
  0.00000000E+00  0.00000000E+00  0.00000000E+00
  0.00000000E+00  0.00000000E+00  0.00000000E+00
  0.00000000E+00  0.00000000E+00  0.00000000E+00
  0.00000000E+00  0.00000000E+00  0.00000000E+00
  0.00000000E+00  0.00000000E+00  0.00000000E+00
  0.00000000E+00  0.00000000E+00  0.00000000E+00
  0.00000000E+00  0.00000000E+00  0.00000000E+00
  0.00000000E+00  0.00000000E+00  0.00000000E+00
  0.00000000E+00  0.00000000E+00  0.00000000E+00
  0.00000000E+00  0.00000000E+00  0.00000000E+00
  0.00000000E+00  0.00000000E+00  0.00000000E+00
  0.00000000E+00  0.00000000E+00  0.00000000E+00
  0.00000000E+00  0.00000000E+00  0.00000000E+00
  0.00000000E+00  0.00000000E+00  0.00000000E+00
  0.00000000E+00  0.00000000E+00  0.00000000E+00
  0.00000000E+00  0.00000000E+00  0.00000000E+00
  0.00000000E+00  0.00000000E+00  0.00000000E+00
  0.00000000E+00  0.00000000E+00  0.00000000E+00
  0.00000000E+00  0.00000000E+00  0.00000000E+00
  0.00000000E+00  0.00000000E+00  0.00000000E+00
  0.00000000E+00  0.00000000E+00  0.00000000E+00
  0.00000000E+00  0.00000000E+00  0.00000000E+00
  0.00000000E+00  0.00000000E+00  0.00000000E+00
  0.00000000E+00  0.00000000E+00  0.00000000E+00
  0.00000000E+00  0.00000000E+00  0.00000000E+00
  0.00000000E+00  0.00000000E+00  0.00000000E+00
  0.00000000E+00  0.00000000E+00  0.00000000E+00
  0.00000000E+00  0.00000000E+00  0.00000000E+00
  0.00000000E+00  0.00000000E+00  0.00000000E+00
  0.00000000E+00  0.00000000E+00  0.00000000E+00
  0.00000000E+00  0.00000000E+00  0.00000000E+00
  0.00000000E+00  0.00000000E+00  0.00000000E+00
  0.00000000E+00  0.00000000E+00  0.00000000E+00
  0.00000000E+00  0.00000000E+00  0.00000000E+00
  0.00000000E+00  0.00000000E+00  0.00000000E+00
  0.00000000E+00  0.00000000E+00  0.00000000E+00
