C4                                      
1.0
       17.2710380554         0.0000000000         0.0000000000
       -8.6355190277        14.9571577057         0.0000000000
        0.0000000000         0.0000000000        15.0000000000
    C    H    F
   88    7    1
Cartesian
    -8.634093639        14.956377195         3.749999832
    16.033027859         2.133485707         3.749999849
    14.796299612         4.268612447         3.749999772
    13.564163445         6.407348933         3.749999790
    12.336212584         8.546458005         3.749999785
    -6.156030663        10.688678920         3.749999674
    -7.390412788        12.827253395         3.749999685
     2.470801680         0.003744402         3.749999935
     1.230244820         2.138285500         3.749999794
    -0.011814394         4.264539647         3.749999637
    -1.246865559         6.403944059         3.749999919
    -2.467904494         8.542902415         3.749999976
    -3.696423668        10.682866211         3.749999974
    -4.928762674        12.822604348         3.749999938
    -3.699811166        14.953283325         3.750000112
     3.700826721         2.131442727         3.749999979
     2.456363561         4.290750467         3.749999525
     1.208648150         6.395588199         3.750000368
     0.009902889         8.529459913         3.750000636
    -1.239201906        10.686241452         3.749999749
    -2.470275433        12.822190397         3.749999861
    -1.231932320        14.956351942         3.749999954
     6.169715886         2.128888477         3.750000176
     4.934869753         4.215865349         3.750000038
     1.183829280        10.711744984         3.749999643
    -0.005493774        12.822827053         3.749999648
     9.866994505         0.001930385         3.749999750
     8.637856370         2.131087484         3.750000211
     7.415172694         4.272576244         3.750000205
     2.476058529        12.828125475         3.749999592
     3.701541577        14.956818098         3.749999718
    11.103981633         2.136074380         3.749999970
     9.870008623         4.270989774         3.750000134
     8.634140143         6.395830826         3.749999926
     7.441518668         8.578131567         3.749999746
     6.216746471        10.702829597         3.749999789
     4.924034166        12.824410298         3.749999737
    14.804010418         0.000826829         3.749999811
    13.566915627         2.134574296         3.749999811
    12.332903207         4.269448133         3.749999900
    11.102978997         6.407553003         3.749999726
     9.873207645         8.552606817         3.749999448
     8.659587519        10.697451839         3.749999463
     7.410316428        12.820199549         3.749999742
    -0.000967422         1.424832083         3.749999843
    -1.245204352         3.552587402         3.749999793
    -2.480599555         5.691927162         3.749999815
    -3.701712686         7.833064773         3.749999886
    -4.930026301         9.972396815         3.749999852
    -6.160284154        12.111488663         3.749999776
    -7.396734125        14.247089235         3.749999812
     2.466598119         1.421807732         3.749999901
     1.223829929         3.560124677         3.749999654
    -0.025888610         5.682387713         3.749999639
    -1.239426284         7.826846244         3.749999916
    -2.470063075         9.971420723         3.750000005
    -3.698467308        12.109646115         3.749999925
    -4.930353707        14.244673463         3.750000026
     4.934746936         1.422779895         3.750000116
     3.711965506         3.555905030         3.749999852
     2.417771679         5.677914075         3.749999439
     1.192415980         7.801528541         3.750014717
     0.000174772         9.984349497         3.749999683
    -1.235573708        12.108854260         3.749999725
    -2.468465299        14.243006472         3.749999983
     7.405378274         1.419048407         3.750000168
     6.161988438         3.550475767         3.750000200
     1.222294224        12.106059531         3.749999608
    -0.001431780        14.247511606         3.749999723
     9.868105729         1.421939583         3.750000000
     8.641626199         3.554869167         3.750000232
     7.452340705         5.666817244         3.750000068
     3.702395257        12.163476691         3.749999646
     2.467179804        14.249479953         3.749999667
    12.335533198         1.426239552         3.749999799
    11.103752479         3.557584940         3.750000051
     9.872753337         5.693632727         3.749999959
     8.623773035         7.849629423         3.749999653
     7.424679574         9.984099492         3.749999649
     6.178246030        12.089869805         3.749999777
     4.934952049        14.248053811         3.749999734
    14.801938613         1.419006054         3.749999832
    13.564455199         3.557257875         3.749999823
    12.330170685         5.696623815         3.749999781
    11.102383217         7.836624982         3.749999583
     9.880971204         9.976057964         3.749999423
     8.646583091        12.115807705         3.749999588
     7.405126153        14.242307404         3.749999817
     4.933720003         5.300276029         3.749999928
     3.337286404         6.261580850         3.749999671
     2.158000986         8.305277039         3.750000090
     6.476042580         8.074075468         3.749999932
     6.513915272         6.210229141         3.749999909
     3.703951902        11.079105995         3.749999753
     2.121756241        10.167436690         3.749999784
     5.063315685        10.015761514         3.749999868
