C4                                      
    1.000000000000000     
    17.2710380553999983    0.0000000000000000    0.0000000000000000
    -8.6355190276999991   14.9571577057000002    0.0000000000000000
     0.0000000000000000    0.0000000000000000   15.0000000000000000
   C    F    N 
    86     6     2
Direct
  0.0003722422548844  0.0007414732477990  0.2515574772619366
 -0.0004428633153340  0.1429672537106955  0.2569965198716385
 -0.0005071376686562  0.2860363762433585  0.2578321613714829
 -0.0004167802251540  0.4290616964668730  0.2551834594968647
 -0.0002349569153527  0.5720189214929360  0.2481185128404428
  0.0010616661827088  0.7153751279748152  0.2442946056721331
  0.0018951267410214  0.8589452896889735  0.2457550929661792
  0.1437594124900377  0.0014315648139742  0.2436704888551043
  0.1430368873451134  0.1437723318035544  0.2506644238072937
  0.1420121027706469  0.2860251974488042  0.2520567410041246
  0.1425001502165646  0.4295322912182476  0.2511387820587306
  0.1427859269801903  0.5719626867694131  0.2483798485759667
  0.1429580175320257  0.7149048148644896  0.2440870436369417
  0.1434663535515577  0.8581011590964944  0.2422126718144870
  0.2858985872883946  0.0004562781592834  0.2426054303201180
  0.2862676528084862  0.1434094086773210  0.2426552726528096
  0.2855951985018427  0.2868095870301869  0.2449088285094596
  0.2834359791269968  0.4284239286976326  0.2356651923857128
  0.2871456264327412  0.5733324524947007  0.2432244841046294
  0.2851782316741258  0.7154958535514577  0.2456706565218718
  0.2853752737875343  0.8579789489152295  0.2439374838051870
  0.4286904444682569  0.0000254888370865  0.2461465453754689
  0.4285970771777606  0.1425027716302804  0.2440655982585009
  0.4258160362411397  0.2794550283364967  0.2650240970367729
  0.4274929520210461  0.8570284996264740  0.2485522429020587
  0.5709756653949413 -0.0010111382854608  0.2539146271078099
  0.5714409667785311  0.1421995337980443  0.2539448943488533
  0.5721596983067405  0.2850182040995166  0.2463283632540278
  0.5691958192273399  0.8541593352308675  0.2542160743650515
  0.7131851686891292 -0.0019975680855944  0.2586635252556633
  0.7141069861222594  0.1422648464669823  0.2592243419642278
  0.7144129459111317  0.2858889743588534  0.2570128232772956
  0.7140220776581108  0.4292715204674236  0.2473075905099374
  0.7201084065811066  0.5778963729017371  0.2657821038674260
  0.7135010654179799  0.8543230841400350  0.2588059305691459
  0.8565787801879594 -0.0005860503646663  0.2583962532480744
  0.8564699667500065  0.1423836329898539  0.2602855571666923
  0.8567670734850015  0.2857923546398165  0.2600862586106220
  0.8568925954519787  0.4292188007448201  0.2561861553786729
  0.8572793159514488  0.5729416788679471  0.2479183340944036
  0.8603679193315426  0.7169357027004409  0.2502301129855346
  0.8586334498267268  0.8576833155989868  0.2543175844762954
  0.0478132414489636  0.0959769487460853  0.2534727212265461
  0.0467838747877660  0.2381432110045853  0.2562331426015658
  0.0470346434833535  0.3814515353192551  0.2555310867991155
  0.0474385947648441  0.5242799155209261  0.2508158346485219
  0.0478832006514722  0.6673481672080751  0.2447099306877699
  0.0485477667127139  0.8105784047032930  0.2434166060153268
  0.0486345292430666  0.9537856454190141  0.2466936768662456
  0.1910016208007682  0.0963203916978993  0.2442982116125780
  0.1899216004961528  0.2388723015425099  0.2510991784699046
  0.1888621691467059  0.3810487542564651  0.2480688970350194
  0.1908898870405576  0.5248766534557074  0.2478576715542521
  0.1901095841721258  0.6672817314618841  0.2455605006139166
  0.1905619014364000  0.8102576945476049  0.2429027726318207
  0.1909757219667309  0.9532434164683531  0.2421433981320001
  0.3335658071272124  0.0955689787257422  0.2429131044443317
  0.3339248215355889  0.2385313984559670  0.2491099308852911
  0.3269191844218475  0.3780177856328172  0.2266708046894042
  0.3296218631502516  0.5229948908938652  0.2346678196111077
  0.3359603916738315  0.6711138695737643  0.2458830621305786
  0.3326871990310133  0.8102789319220552  0.2458567693019924
  0.3333447317883896  0.9528550921656211  0.2437544549073014
  0.4765435313421736  0.0950319526378830  0.2467416873571419
  0.4762188024349163  0.2373459532692324  0.2494846051775467
  0.4716176023489639  0.8059374012069260  0.2505856862371577
  0.4759966470333523  0.9522371168603108  0.2495366792872614
  0.6187495716511074  0.0943406213798349  0.2563558692708570
  0.6194888049958731  0.2376950260904123  0.2547075463689162
  0.6226579558595872  0.3773023706443814  0.2294048856162007
  0.6195818208167063  0.8102273178368812  0.2557507663808899
  0.6177071641044122  0.9500591475066841  0.2559672550350346
  0.7611685563072819  0.0940573825379565  0.2597791226448710
  0.7617383045714040  0.2378525607830493  0.2593982648318302
  0.7615699331202070  0.3813931174342510  0.2562858594059887
  0.7612089276999641  0.5264199456808561  0.2516017183987903
  0.7660479294327459  0.6728826715951958  0.2602859059945615
  0.7628545091029810  0.8057386021800382  0.2595184982870629
  0.7609553671413524  0.9502798143292908  0.2591113043595881
  0.9040695671455664  0.0946217486967117  0.2590189657488710
  0.9041450460627346  0.2379542749167281  0.2600619575428065
  0.9042227265224559  0.3814051512150332  0.2579247325756201
  0.9043298821403521  0.5246004645176551  0.2498613738622805
  0.9060356182894452  0.6679135056543785  0.2468260244834029
  0.9071222745474392  0.8114836978547362  0.2495458584864323
  0.9050920051093420  0.9526335196902241  0.2547964052704627
  0.4676415401308075  0.3607924341056200  0.3042771931363299
  0.4110811275642383  0.4200286471457709  0.1947934607454841
  0.4187623892118030  0.5642899521147349  0.2272182159758288
  0.6333722514925053  0.5387672095182968  0.2887553222702769
  0.5813705219696522  0.4155239361871520  0.1867751061957922
  0.5751710011655666  0.7210305396966675  0.2528094939810152
  0.4254340779019667  0.7160150480000641  0.2488918734443553
  0.7194406709121786  0.7165144048192527  0.2652445951771024
 
  0.00000000E+00  0.00000000E+00  0.00000000E+00
  0.00000000E+00  0.00000000E+00  0.00000000E+00
  0.00000000E+00  0.00000000E+00  0.00000000E+00
  0.00000000E+00  0.00000000E+00  0.00000000E+00
  0.00000000E+00  0.00000000E+00  0.00000000E+00
  0.00000000E+00  0.00000000E+00  0.00000000E+00
  0.00000000E+00  0.00000000E+00  0.00000000E+00
  0.00000000E+00  0.00000000E+00  0.00000000E+00
  0.00000000E+00  0.00000000E+00  0.00000000E+00
  0.00000000E+00  0.00000000E+00  0.00000000E+00
  0.00000000E+00  0.00000000E+00  0.00000000E+00
  0.00000000E+00  0.00000000E+00  0.00000000E+00
  0.00000000E+00  0.00000000E+00  0.00000000E+00
  0.00000000E+00  0.00000000E+00  0.00000000E+00
  0.00000000E+00  0.00000000E+00  0.00000000E+00
  0.00000000E+00  0.00000000E+00  0.00000000E+00
  0.00000000E+00  0.00000000E+00  0.00000000E+00
  0.00000000E+00  0.00000000E+00  0.00000000E+00
  0.00000000E+00  0.00000000E+00  0.00000000E+00
  0.00000000E+00  0.00000000E+00  0.00000000E+00
  0.00000000E+00  0.00000000E+00  0.00000000E+00
  0.00000000E+00  0.00000000E+00  0.00000000E+00
  0.00000000E+00  0.00000000E+00  0.00000000E+00
  0.00000000E+00  0.00000000E+00  0.00000000E+00
  0.00000000E+00  0.00000000E+00  0.00000000E+00
  0.00000000E+00  0.00000000E+00  0.00000000E+00
  0.00000000E+00  0.00000000E+00  0.00000000E+00
  0.00000000E+00  0.00000000E+00  0.00000000E+00
  0.00000000E+00  0.00000000E+00  0.00000000E+00
  0.00000000E+00  0.00000000E+00  0.00000000E+00
  0.00000000E+00  0.00000000E+00  0.00000000E+00
  0.00000000E+00  0.00000000E+00  0.00000000E+00
  0.00000000E+00  0.00000000E+00  0.00000000E+00
  0.00000000E+00  0.00000000E+00  0.00000000E+00
  0.00000000E+00  0.00000000E+00  0.00000000E+00
  0.00000000E+00  0.00000000E+00  0.00000000E+00
  0.00000000E+00  0.00000000E+00  0.00000000E+00
  0.00000000E+00  0.00000000E+00  0.00000000E+00
  0.00000000E+00  0.00000000E+00  0.00000000E+00
  0.00000000E+00  0.00000000E+00  0.00000000E+00
  0.00000000E+00  0.00000000E+00  0.00000000E+00
  0.00000000E+00  0.00000000E+00  0.00000000E+00
  0.00000000E+00  0.00000000E+00  0.00000000E+00
  0.00000000E+00  0.00000000E+00  0.00000000E+00
  0.00000000E+00  0.00000000E+00  0.00000000E+00
  0.00000000E+00  0.00000000E+00  0.00000000E+00
  0.00000000E+00  0.00000000E+00  0.00000000E+00
  0.00000000E+00  0.00000000E+00  0.00000000E+00
  0.00000000E+00  0.00000000E+00  0.00000000E+00
  0.00000000E+00  0.00000000E+00  0.00000000E+00
  0.00000000E+00  0.00000000E+00  0.00000000E+00
  0.00000000E+00  0.00000000E+00  0.00000000E+00
  0.00000000E+00  0.00000000E+00  0.00000000E+00
  0.00000000E+00  0.00000000E+00  0.00000000E+00
  0.00000000E+00  0.00000000E+00  0.00000000E+00
  0.00000000E+00  0.00000000E+00  0.00000000E+00
  0.00000000E+00  0.00000000E+00  0.00000000E+00
  0.00000000E+00  0.00000000E+00  0.00000000E+00
  0.00000000E+00  0.00000000E+00  0.00000000E+00
  0.00000000E+00  0.00000000E+00  0.00000000E+00
  0.00000000E+00  0.00000000E+00  0.00000000E+00
  0.00000000E+00  0.00000000E+00  0.00000000E+00
  0.00000000E+00  0.00000000E+00  0.00000000E+00
  0.00000000E+00  0.00000000E+00  0.00000000E+00
  0.00000000E+00  0.00000000E+00  0.00000000E+00
  0.00000000E+00  0.00000000E+00  0.00000000E+00
  0.00000000E+00  0.00000000E+00  0.00000000E+00
  0.00000000E+00  0.00000000E+00  0.00000000E+00
  0.00000000E+00  0.00000000E+00  0.00000000E+00
  0.00000000E+00  0.00000000E+00  0.00000000E+00
  0.00000000E+00  0.00000000E+00  0.00000000E+00
  0.00000000E+00  0.00000000E+00  0.00000000E+00
  0.00000000E+00  0.00000000E+00  0.00000000E+00
  0.00000000E+00  0.00000000E+00  0.00000000E+00
  0.00000000E+00  0.00000000E+00  0.00000000E+00
  0.00000000E+00  0.00000000E+00  0.00000000E+00
  0.00000000E+00  0.00000000E+00  0.00000000E+00
  0.00000000E+00  0.00000000E+00  0.00000000E+00
  0.00000000E+00  0.00000000E+00  0.00000000E+00
  0.00000000E+00  0.00000000E+00  0.00000000E+00
  0.00000000E+00  0.00000000E+00  0.00000000E+00
  0.00000000E+00  0.00000000E+00  0.00000000E+00
  0.00000000E+00  0.00000000E+00  0.00000000E+00
  0.00000000E+00  0.00000000E+00  0.00000000E+00
  0.00000000E+00  0.00000000E+00  0.00000000E+00
  0.00000000E+00  0.00000000E+00  0.00000000E+00
  0.00000000E+00  0.00000000E+00  0.00000000E+00
  0.00000000E+00  0.00000000E+00  0.00000000E+00
  0.00000000E+00  0.00000000E+00  0.00000000E+00
  0.00000000E+00  0.00000000E+00  0.00000000E+00
  0.00000000E+00  0.00000000E+00  0.00000000E+00
  0.00000000E+00  0.00000000E+00  0.00000000E+00
  0.00000000E+00  0.00000000E+00  0.00000000E+00
  0.00000000E+00  0.00000000E+00  0.00000000E+00
