C    H    N    O 
    1.000000000000000     
  17.2710380553999983   0.0000000000000000   0.0000000000000000
  -8.6355190276999991  14.9571577057000002   0.0000000000000000
   0.0000000000000000   0.0000000000000000  15.0000000000000000
C    H    N    O 
87  9  1  1  
Selective dynamics
Direct
  0.9999430177573800  0.0001119750938649  0.4982565228284693 T T T
  0.9997912913471000  0.1428714603623838  0.4998152129874515 T T T
  0.0000513658927549  0.2859417925147280  0.5006986748458045 T T T
  0.0003641194486641  0.4288665285134087  0.5004839857568093 T T T
  0.0005889844872885  0.5717204224779407  0.4990433707088460 T T T
  0.0011717600987300  0.7148225427006699  0.4976666030910339 T T T
  0.0008729828792011  0.8578819510130599  0.4973869848942990 T T T
  0.1432731675832542  0.0007247758664231  0.4981958066282164 T T T
  0.1429746039251627  0.1434510648722727  0.4993705637806560 T T T
  0.1428133754869934  0.2861342339254037  0.4999027659855634 T T T
  0.1433800114151454  0.4295667644312952  0.5002362755638867 T T T
  0.1436121496836824  0.5718929250889447  0.4999845180763357 T T T
  0.1435734531094376  0.7146148533632375  0.4986795106357856 T T T
  0.1433397260321144  0.8576977269709998  0.4979255625040356 T T T
  0.2858525580191201  0.0002830700966994  0.4997192502963149 T T T
  0.2859472413363503  0.1431255297777900  0.5003495713094173 T T T
  0.2864446067971653  0.2877511994260293  0.4999518338713936 T T T
  0.2856706673052896  0.4294828911966372  0.4981756312229907 T T T
  0.2882003583847897  0.5727660529813958  0.4995100713927573 T T T
  0.2864409082416859  0.7154671937693077  0.4999308139947825 T T T
  0.2856498812930372  0.8579073724800862  0.4995629054078567 T T T
  0.4287632429552859  0.0000821763930485  0.5011180267852565 T T T
  0.4286484799057755  0.1426017476646129  0.5020251429720020 T T T
  0.4272411210699628  0.2824233595752854  0.5046058879844586 T T T
  0.4278743450973238  0.8570269440733681  0.5007899890749502 T T T
  0.5710935662235284  0.9996660704594020  0.5017925082222106 T T T
  0.5715647581599700  0.1423912997242026  0.5025335845669499 T T T
  0.5725339984768120  0.2858497851300599  0.5033997527286228 T T T
  0.5701635094298321  0.8556217138562883  0.5016045889593181 T T T
  0.7133479128157667  0.9990201222799177  0.5014028681777606 T T T
  0.7143557529831694  0.1425344299777248  0.5020141175114868 T T T
  0.7146246681568758  0.2855480321153917  0.5021748376686113 T T T
  0.7141907297006720  0.4276962266174520  0.5016621788920711 T T T
  0.7178834673624560  0.5734104143597100  0.5013796505175514 T T T
  0.7174006305619155  0.7148812786909216  0.5015489548937565 T T T
  0.7123069573206225  0.8560451149911711  0.5010611953429733 T T T
  0.8566348534954594  0.9996412215747252  0.4999281640910469 T T T
  0.8567737666248200  0.1425260986025388  0.5010090705782598 T T T
  0.8572594692089075  0.2855655698058748  0.5013581664194237 T T T
  0.8577188787686346  0.4286016748714035  0.5005569320161775 T T T
  0.8580372412931457  0.5719401139473480  0.4991542362982267 T T T
  0.8592634512679822  0.7152386207894147  0.4985653806278298 T T T
  0.8572752302775904  0.8569522161663463  0.4989146098286379 T T T
  0.0476867353180142  0.0954823975621267  0.4990197995266027 T T T
  0.0472914633499189  0.2380574353947424  0.5002186827666437 T T T
  0.0477305864788716  0.3813409257419315  0.5006157128962645 T T T
  0.0483131749073357  0.5241867179452728  0.4998560504621348 T T T
  0.0483526289691849  0.6670578014874654  0.4982978821574366 T T T
  0.0482195145552012  0.8100185630297728  0.4973646023289243 T T T
  0.0479698153927345  0.9528420879772584  0.4976848697578447 T T T
  0.1907070303011421  0.0956338928760671  0.4990600200355955 T T T
  0.1905549823225043  0.2387439073025402  0.4998510985282585 T T T
  0.1899835114391559  0.3813449288659191  0.4997047473925896 T T T
  0.1917956995134275  0.5250508316683606  0.5002175447050720 T T T
  0.1911420991209915  0.6672481626766826  0.4995184387088090 T T T
  0.1907798241987635  0.8100494245183674  0.4985887267680552 T T T
  0.1908621997337579  0.9528621669820641  0.4984314360936806 T T T
  0.3335436872267080  0.0955980163015364  0.5007785268003999 T T T
  0.3343734381080953  0.2383840010783770  0.5016964475674391 T T T
  0.3310827743635695  0.3807199567148384  0.4979190066800288 T T T
  0.3323862033352103  0.5241067574954138  0.4975135356756324 T T T
  0.3373691092145216  0.6710084700937371  0.5001856280558986 T T T
  0.3331373853129511  0.8102290019091832  0.5000993864093151 T T T
  0.3333659030320870  0.9528109451413838  0.5001246195993687 T T T
  0.4763787397834191  0.0950159579249233  0.5019081353940871 T T T
  0.4757474154526867  0.2376294689763086  0.5035996571025779 T T T
  0.4725259502744644  0.8064604829548158  0.5011982329845086 T T T
  0.4760876864217578  0.9523669712077066  0.5012707532959182 T T T
  0.6189274468789953  0.0947848711738037  0.5021792024860254 T T T
  0.6194798625569454  0.2377153261060659  0.5028726689513342 T T T
  0.6212962535901124  0.3791045017719821  0.5026674777492913 T T T
  0.6188821293957497  0.8110197106283988  0.5015923667114447 T T T
  0.6179408286417297  0.9512888606566986  0.5016720466229673 T T T
  0.7615641947236682  0.0947400784164160  0.5015124559685119 T T T
  0.7621779880966717  0.2377165820171109  0.5018857896615294 T T T
  0.7624515679515345  0.3807311851032006  0.5015222355415484 T T T
  0.7622243804716197  0.5249553534208778  0.5006304322573167 T T T
  0.7639821426071361  0.6674262532120209  0.5003981304097415 T T T
  0.7612698062046991  0.8076671346334192  0.5005232238853435 T T T
  0.7610514512658818  0.9516017095456092  0.5007582544466828 T T T
  0.9043012941730052  0.0947026665493994  0.5002388330630901 T T T
  0.9046637727758288  0.2378958210659456  0.5010648341583543 T T T
  0.9050298656503264  0.3810998741738371  0.5008131218846754 T T T
  0.9053862453522324  0.5241783613644870  0.4994039920843333 T T T
  0.9059417302672352  0.6671058719603963  0.4981359027266558 T T T
  0.9055760638925688  0.8100768096482278  0.4980063373914141 T T T
  0.9046238039333822  0.9521122882634944  0.4988049055254044 T T T
  0.4634096540541306  0.3548687037233346  0.5079056207714444 T T T
  0.4037858782894260  0.4192498338189007  0.4971235674502042 T T T
  0.4052941046392440  0.5606640210334748  0.4945424172505200 T T T
  0.6447379102763646  0.6755585168811068  0.5040302249214229 T T T
  0.6452208865574210  0.5400525170030563  0.5031926099667918 T T T
  0.5852742322554098  0.4155919252800558  0.5024484431423428 T T T
  0.5801063414951091  0.7383308232511600  0.5017725735256942 T T T
  0.4680095077304843  0.5390082142651339  0.6233604205760855 T T T
  0.5550394378786823  0.5455971664547007  0.6585376777025557 T T T
  0.4273922875160748  0.7159722747882787  0.5010130111238463 T T T
  0.5198316870710198  0.5349551933737898  0.6046639079999991 T T F
