C4                                      
    1.000000000000000     
    17.2710380553999983    0.0000000000000000    0.0000000000000000
    -8.6355190276999991   14.9571577057000002    0.0000000000000000
     0.0000000000000000    0.0000000000000000   15.0000000000000000
   C    H    F 
    88     4     4
Direct
 -0.0010489883516552 -0.0009505688855354  0.2499943542641901
 -0.0008258127594515  0.1421946236424993  0.2499994228690486
 -0.0006283045403323  0.2851870127790325  0.2499991520479646
 -0.0001432590544301  0.4283563543670670  0.2500010386994681
  0.0008869427633428  0.5715298854615586  0.2500022614117932
  0.0021484221754978  0.7149563970807126  0.2499977997223902
  0.0009182536335128  0.8577955631939486  0.2499942940625962
  0.1428965667272095  0.0005452533447815  0.2499939673054838
  0.1421225899094772  0.1426699730177557  0.2499982931165910
  0.1415643684152704  0.2848965776851633  0.2499996588820226
  0.1416815627119722  0.4283108894324516  0.2499999422795442
  0.1427685810276963  0.5715647887983789  0.2500015479672014
  0.1431458528957966  0.7149555281058180  0.2500003827352295
  0.1432301722603752  0.8579717331092822  0.2499978840477891
  0.2853596965403413  0.0004872901285401  0.2499976863115110
  0.2854619021153756  0.1428713148340478  0.2499957196615530
  0.2855135865557091  0.2861071440477018  0.2499983888851018
  0.2828950205153038  0.4278117764008705  0.2500038127464150
  0.2852545626030486  0.5720374724635826  0.2500035784657714
  0.2842716818201085  0.7156033506384227  0.2500044420800934
  0.2851703304357558  0.8583163095849254  0.2500019292652300
  0.4283428652502765  0.0010623476881714  0.2500031365169543
  0.4284465137325161  0.1425868959538533  0.2500011156815277
  0.4276081412471051  0.2816515597833569  0.2500002169161212
  0.4243914631147528  0.7182971170382022  0.2499955870079441
  0.4275482360610097  0.8591762458007622  0.2500011941950405
  0.5711237668047725  0.0017864905414526  0.2499950616094045
  0.5715626852977299  0.1434072392890746  0.2500026864801387
  0.5726971334511922  0.2861720649164212  0.2500015649415374
  0.5706600037031057  0.8608323933424765  0.2499927671813418
  0.7141681637685505  0.0005007368358661  0.2499925612534584
  0.7144811408767318  0.1431423295425785  0.2499981289078830
  0.7147772953721372  0.2855412957533663  0.2500003697734333
  0.7147660347353906  0.4272019385148384  0.2499976479471518
  0.7206613299744552  0.5724837534993563  0.2499998933482365
  0.7197428765494018  0.7114131687401039  0.2500071112355434
  0.7133011083513308  0.8571030955147677  0.2499984520560198
  0.8565280326775184 -0.0005711684724990  0.2499994208365074
  0.8568237163771800  0.1425434609660180  0.2499984262545124
  0.8571198070730038  0.2853050268970728  0.2500002551190007
  0.8578175297045807  0.4281620921497759  0.2499987088130363
  0.8595468888488124  0.5715804820700778  0.2500006651738674
  0.8617588819885981  0.7152072346574997  0.2499988791026585
  0.8558267969403972  0.8550039021707246  0.2499985889388669
  0.0467393179450702  0.0946040777043330  0.2499969440866323
  0.0463913339648408  0.2371819618748554  0.2499982628461857
  0.0466496145250717  0.3804136406276383  0.2499993513343247
  0.0479229161553763  0.5236618269059595  0.2500012729749927
  0.0485791887970970  0.6669313228936167  0.2499987043715884
  0.0484435442497240  0.8101313071142263  0.2499961702819193
  0.0476817333959862  0.9525575644239755  0.2499937020696323
  0.1901819877490807  0.0953211004624693  0.2499945783049629
  0.1894888677945565  0.2378385291955979  0.2499991554123709
  0.1878587946807422  0.3797956694816673  0.2499992052930380
  0.1896257968265878  0.5235151975239833  0.2500012301019212
  0.1897681240304012  0.6672118267644328  0.2500037213302146
  0.1904451162555484  0.8103428749535371  0.2499986604814151
  0.1905004799270501  0.9529928370152818  0.2499954064149324
  0.3332381722319802  0.0956344213504280  0.2499975576611795
  0.3343829911000310  0.2381361074497953  0.2499975173709195
  0.3275803350449815  0.3787905716679905  0.2499982627590957
  0.3276958397929099  0.5217385848645909  0.2500104604963779
  0.3321284224187396  0.6690089318118337  0.2500013577921750
  0.3325000089466246  0.8107855908231463  0.2500050292451552
  0.3329051785540501  0.9532643498868556  0.2500011788082702
  0.4763444441523864  0.0956709853643008  0.2500029661848817
  0.4758957368255602  0.2371246341362780  0.2500016821598379
  0.4742421852571871  0.8114688367769940  0.2499965114815800
  0.4758898298709283  0.9540983936889578  0.2500004964015719
  0.6191244740257356  0.0962798400937478  0.2499987700068872
  0.6197507951673618  0.2383505915457844  0.2500021510087770
  0.6217353991654946  0.3794149355661794  0.2499990348770746
  0.6211010425247859  0.8185965849202227  0.2500082096586096
  0.6190813463879347  0.9549752927804732  0.2499884822423301
  0.7619314556571259  0.0955415194873481  0.2499972012931350
  0.7622373503433764  0.2379019454451440  0.2499998745062673
  0.7627471090873923  0.3803762196964255  0.2499993962571907
  0.7642106379533612  0.5241033426823339  0.2499977711385675
  0.7679737952240198  0.6661851507728695  0.2500019743765518
  0.7585903619462044  0.8048770728912543  0.2500028956826237
  0.7615405905658340  0.9524362403003354  0.2499993507677287
  0.9040213094736302  0.0943830274198557  0.2499990315219613
  0.9043705079865365  0.2376114188207003  0.2500001170696202
  0.9048064129259595  0.3806307941072610  0.2500017884984040
  0.9061183017343101  0.5236387738958740  0.2500024220216082
  0.9076328405303224  0.6667662977960050  0.2499980966023516
  0.9058808750625454  0.8098234119856798  0.2499950273313961
  0.9033746921797378  0.9506592206861333  0.2499958197208783
  0.4649562708991983  0.3533103822200083  0.2500011397599279
  0.6484469591983901  0.5388980858019724  0.2499994150891660
  0.5859909017000169  0.4161840293257909  0.2499991886082328
  0.4580420474817524  0.6813135304854042  0.2499886476792663
  0.4184297885893606  0.4280119732325110  0.2499868679219550
  0.4183858556657509  0.5629600522510623  0.2500256186511866
  0.6315527583415217  0.6489252121655062  0.2499894281509911
  0.5736885910511478  0.7297228223776167  0.2500648977749623
 
  0.00000000E+00  0.00000000E+00  0.00000000E+00
  0.00000000E+00  0.00000000E+00  0.00000000E+00
  0.00000000E+00  0.00000000E+00  0.00000000E+00
  0.00000000E+00  0.00000000E+00  0.00000000E+00
  0.00000000E+00  0.00000000E+00  0.00000000E+00
  0.00000000E+00  0.00000000E+00  0.00000000E+00
  0.00000000E+00  0.00000000E+00  0.00000000E+00
  0.00000000E+00  0.00000000E+00  0.00000000E+00
  0.00000000E+00  0.00000000E+00  0.00000000E+00
  0.00000000E+00  0.00000000E+00  0.00000000E+00
  0.00000000E+00  0.00000000E+00  0.00000000E+00
  0.00000000E+00  0.00000000E+00  0.00000000E+00
  0.00000000E+00  0.00000000E+00  0.00000000E+00
  0.00000000E+00  0.00000000E+00  0.00000000E+00
  0.00000000E+00  0.00000000E+00  0.00000000E+00
  0.00000000E+00  0.00000000E+00  0.00000000E+00
  0.00000000E+00  0.00000000E+00  0.00000000E+00
  0.00000000E+00  0.00000000E+00  0.00000000E+00
  0.00000000E+00  0.00000000E+00  0.00000000E+00
  0.00000000E+00  0.00000000E+00  0.00000000E+00
  0.00000000E+00  0.00000000E+00  0.00000000E+00
  0.00000000E+00  0.00000000E+00  0.00000000E+00
  0.00000000E+00  0.00000000E+00  0.00000000E+00
  0.00000000E+00  0.00000000E+00  0.00000000E+00
  0.00000000E+00  0.00000000E+00  0.00000000E+00
  0.00000000E+00  0.00000000E+00  0.00000000E+00
  0.00000000E+00  0.00000000E+00  0.00000000E+00
  0.00000000E+00  0.00000000E+00  0.00000000E+00
  0.00000000E+00  0.00000000E+00  0.00000000E+00
  0.00000000E+00  0.00000000E+00  0.00000000E+00
  0.00000000E+00  0.00000000E+00  0.00000000E+00
  0.00000000E+00  0.00000000E+00  0.00000000E+00
  0.00000000E+00  0.00000000E+00  0.00000000E+00
  0.00000000E+00  0.00000000E+00  0.00000000E+00
  0.00000000E+00  0.00000000E+00  0.00000000E+00
  0.00000000E+00  0.00000000E+00  0.00000000E+00
  0.00000000E+00  0.00000000E+00  0.00000000E+00
  0.00000000E+00  0.00000000E+00  0.00000000E+00
  0.00000000E+00  0.00000000E+00  0.00000000E+00
  0.00000000E+00  0.00000000E+00  0.00000000E+00
  0.00000000E+00  0.00000000E+00  0.00000000E+00
  0.00000000E+00  0.00000000E+00  0.00000000E+00
  0.00000000E+00  0.00000000E+00  0.00000000E+00
  0.00000000E+00  0.00000000E+00  0.00000000E+00
  0.00000000E+00  0.00000000E+00  0.00000000E+00
  0.00000000E+00  0.00000000E+00  0.00000000E+00
  0.00000000E+00  0.00000000E+00  0.00000000E+00
  0.00000000E+00  0.00000000E+00  0.00000000E+00
  0.00000000E+00  0.00000000E+00  0.00000000E+00
  0.00000000E+00  0.00000000E+00  0.00000000E+00
  0.00000000E+00  0.00000000E+00  0.00000000E+00
  0.00000000E+00  0.00000000E+00  0.00000000E+00
  0.00000000E+00  0.00000000E+00  0.00000000E+00
  0.00000000E+00  0.00000000E+00  0.00000000E+00
  0.00000000E+00  0.00000000E+00  0.00000000E+00
  0.00000000E+00  0.00000000E+00  0.00000000E+00
  0.00000000E+00  0.00000000E+00  0.00000000E+00
  0.00000000E+00  0.00000000E+00  0.00000000E+00
  0.00000000E+00  0.00000000E+00  0.00000000E+00
  0.00000000E+00  0.00000000E+00  0.00000000E+00
  0.00000000E+00  0.00000000E+00  0.00000000E+00
  0.00000000E+00  0.00000000E+00  0.00000000E+00
  0.00000000E+00  0.00000000E+00  0.00000000E+00
  0.00000000E+00  0.00000000E+00  0.00000000E+00
  0.00000000E+00  0.00000000E+00  0.00000000E+00
  0.00000000E+00  0.00000000E+00  0.00000000E+00
  0.00000000E+00  0.00000000E+00  0.00000000E+00
  0.00000000E+00  0.00000000E+00  0.00000000E+00
  0.00000000E+00  0.00000000E+00  0.00000000E+00
  0.00000000E+00  0.00000000E+00  0.00000000E+00
  0.00000000E+00  0.00000000E+00  0.00000000E+00
  0.00000000E+00  0.00000000E+00  0.00000000E+00
  0.00000000E+00  0.00000000E+00  0.00000000E+00
  0.00000000E+00  0.00000000E+00  0.00000000E+00
  0.00000000E+00  0.00000000E+00  0.00000000E+00
  0.00000000E+00  0.00000000E+00  0.00000000E+00
  0.00000000E+00  0.00000000E+00  0.00000000E+00
  0.00000000E+00  0.00000000E+00  0.00000000E+00
  0.00000000E+00  0.00000000E+00  0.00000000E+00
  0.00000000E+00  0.00000000E+00  0.00000000E+00
  0.00000000E+00  0.00000000E+00  0.00000000E+00
  0.00000000E+00  0.00000000E+00  0.00000000E+00
  0.00000000E+00  0.00000000E+00  0.00000000E+00
  0.00000000E+00  0.00000000E+00  0.00000000E+00
  0.00000000E+00  0.00000000E+00  0.00000000E+00
  0.00000000E+00  0.00000000E+00  0.00000000E+00
  0.00000000E+00  0.00000000E+00  0.00000000E+00
  0.00000000E+00  0.00000000E+00  0.00000000E+00
  0.00000000E+00  0.00000000E+00  0.00000000E+00
  0.00000000E+00  0.00000000E+00  0.00000000E+00
  0.00000000E+00  0.00000000E+00  0.00000000E+00
  0.00000000E+00  0.00000000E+00  0.00000000E+00
  0.00000000E+00  0.00000000E+00  0.00000000E+00
  0.00000000E+00  0.00000000E+00  0.00000000E+00
  0.00000000E+00  0.00000000E+00  0.00000000E+00
  0.00000000E+00  0.00000000E+00  0.00000000E+00
