C    H    N    O                        
    1.000000000000000     
    17.2710380553999983    0.0000000000000000    0.0000000000000000
    -8.6355190276999991   14.9571577057000002    0.0000000000000000
     0.0000000000000000    0.0000000000000000   15.0000000000000000
   C    H    N    O 
    86     8     2     1
Selective dynamics
Direct
  0.9989334323479991  0.9992224447656712  0.5008763563805976   T   T   T
  0.9989217304485043  0.1420299714278037  0.5001640012481670   T   T   T
  0.9990091708695946  0.2851870025479368  0.4997132856619369   T   T   T
  0.9989249693554517  0.4282513913630142  0.4999708475558093   T   T   T
  0.9989759379989838  0.5710944845333312  0.5007233380916418   T   T   T
  0.9991718382124647  0.7137528016555816  0.5008849736071328   T   T   T
  0.9991499267793199  0.8567886750548496  0.5008467086697731   T   T   T
  0.1425686117504730  1.0000072823888435  0.5008468433550499   T   T   T
  0.1421823507150425  0.1425213948330253  0.4998408800964955   T   T   T
  0.1413071250739426  0.2846679359120747  0.4986938830493469   T   T   T
  0.1413012292322603  0.4279984650651501  0.4985746154951358   T   T   T
  0.1421907671646222  0.5710212815166857  0.4996840854435559   T   T   T
  0.1425962254532255  0.7139438097197885  0.5008222750901578   T   T   T
  0.1425487288884558  0.8569612277373269  0.5011608552205432   T   T   T
  0.2857157758678450  1.0000154091370437  0.5009399767959530   T   T   T
  0.2859703127445484  0.1430866466818708  0.4997496376454605   T   T   T
  0.2855129665055839  0.2868290561252448  0.4976603441598145   T   T   T
  0.2828733258083894  0.4271156877789360  0.4964693717369562   T   T   T
  0.2854963641413147  0.5700265005512776  0.4975804178096939   T   T   T
  0.2859674939128032  0.7142358343944891  0.4996543319782319   T   T   T
  0.2857318377246670  0.8570885855461510  0.5008795015591646   T   T   T
  0.4286062368416420  0.9999904902757023  0.5009711806692768   T   T   T
  0.4292659734139663  0.1435285727267260  0.5003106579913784   T   T   T
  0.4280634375247150  0.2837011866214356  0.4984969926631819   T   T   T
  0.4280620370319906  0.7157059394050996  0.4985038907665554   T   T   T
  0.4292660816933145  0.8570942081167289  0.5003323839854434   T   T   T
  0.5711836993646021  0.9999353814969192  0.5006188339293186   T   T   T
  0.5712017456722592  0.1426564651287072  0.5005572724045593   T   T   T
  0.5745977089102956  0.2885882876838344  0.4992760518679262   T   T   T
  0.5745905694517135  0.8573949904155959  0.4993781684945501   T   T   T
  0.7140302886378856  0.0003179402244130  0.5000479186763941   T   T   T
  0.7139437367586763  0.1426781338888619  0.5005930119426946   T   T   T
  0.7140559447929080  0.2851345039930673  0.4998341717990416   T   T   T
  0.7096883428945865  0.4243287010915448  0.4973522701707636   T   T   T
  0.7146585508825077  0.5712856353955031  0.4891164875614535   T   T   T
  0.7146447895752147  0.7147506861636533  0.4892363802816651   T   T   T
  0.7097036295982325  0.8567814610766031  0.4975808205125975   T   T   T
  0.8560498141460742  0.9993210952600908  0.4999064415290148   T   T   T
  0.8564669825984093  0.1425503976420362  0.5002941379942059   T   T   T
  0.8564990815293579  0.2853392248713085  0.5001719194768625   T   T   T
  0.8560803508966350  0.4281264995499759  0.4996474000875361   T   T   T
  0.8551755585664276  0.5702642379072920  0.4988710870019051   T   T   T
  0.8562447588090553  0.7138011644163496  0.4977365835527661   T   T   T
  0.8551469384763414  0.8562510598348075  0.4990616439916592   T   T   T
  0.0468130636950506  0.0945942315850686  0.5004190595084620   T   T   T
  0.0460925902435298  0.2370505924253374  0.4995750839717597   T   T   T
  0.0460905443419493  0.3804050003519880  0.4994448663956172   T   T   T
  0.0468194058844667  0.5235790521126384  0.5002386714386668   T   T   T
  0.0469652216558432  0.6664004713565236  0.5010039511345485   T   T   T
  0.0468271273452417  0.8090982069494821  0.5010571116120672   T   T   T
  0.0469446478808282  0.9519268979022184  0.5010253345447657   T   T   T
  0.1902928582375639  0.0950546463633194  0.5001712929572767   T   T   T
  0.1895324833571515  0.2376559234773412  0.4987049617937037   T   T   T
  0.1876820725405871  0.3795341684682055  0.4978752063704069   T   T   T
  0.1895307602727449  0.5232243014892584  0.4985746652198141   T   T   T
  0.1903070113138603  0.6666008115755391  0.5000627520745623   T   T   T
  0.1903936574646804  0.8094606711667751  0.5009941305878974   T   T   T
  0.1903923401563997  0.9523283542641240  0.5010122488379632   T   T   T
  0.3338094025748468  0.0957608775723825  0.5004147594842270   T   T   T
  0.3346281333835511  0.2385910256828161  0.4985963167621100   T   T   T
  0.3293181424023694  0.3795332439542865  0.4962035193548632   T   T   T
  0.3293029604674901  0.5211381355500130  0.4961644632208130   T   T   T
  0.3346342047820755  0.6673893378115826  0.4985238349849988   T   T   T
  0.3338105284204972  0.8094136168448492  0.5003384533610530   T   T   T
  0.3331465684309335  0.9522708097997307  0.5010483429830538   T   T   T
  0.4762015893660493  0.0951831117431773  0.5007286635458590   T   T   T
  0.4769096285251072  0.2392465581529815  0.4995319317901257   T   T   T
  0.4768974451659529  0.8090108680324350  0.4995658613094903   T   T   T
  0.4761937882028817  0.9523969116793225  0.5007784563184262   T   T   T
  0.6186176707655644  0.0950096056989997  0.5006902475743908   T   T   T
  0.6193308611628328  0.2380882407717170  0.4998959974357030   T   T   T
  0.6193138731680866  0.9526426583962490  0.5000232563905194   T   T   T
  0.7616233791073383  0.0954686802534301  0.5005045085559188   T   T   T
  0.7616295192322345  0.2375646166055689  0.5003443403861415   T   T   T
  0.7607076133319509  0.3799322190970449  0.4989567887898618   T   T   T
  0.7587541726668174  0.5226248057163423  0.4953418834414439   T   T   T
  0.7604685330620522  0.6659181552835649  0.4917941833375628   T   T   T
  0.7587402081416047  0.8075084525443044  0.4955756344436599   T   T   T
  0.7606925355185528  0.9521981293855538  0.4992151171802605   T   T   T
  0.9036524030684019  0.0943148019430194  0.5002246948645326   T   T   T
  0.9039619942928221  0.2376703002647924  0.5001582861088684   T   T   T
  0.9036796467563672  0.3807312249406998  0.5000320227300584   T   T   T
  0.9035351015586818  0.5234678865153605  0.5001270856748501   T   T   T
  0.9033109841168692  0.6657280122466166  0.4994070266622018   T   T   T
  0.9032864526868494  0.8089179244121245  0.4994722231109966   T   T   T
  0.9034982297318382  0.9514101488884966  0.5003412909651886   T   T   T
  0.4665290816361198  0.3563217757555046  0.4973713642345950   T   T   T
  0.4018503396048263  0.4191733562427480  0.4962093393184933   T   T   T
  0.4018349882885431  0.5540435440722283  0.4961375077603791   T   T   T
  0.6422699086010978  0.6790565539049830  0.4810034418951477   T   T   T
  0.6422803247219232  0.5346098452240660  0.4808426144955299   T   T   T
  0.4665386113113917  0.6815644942268735  0.4973890747899957   T   T   T
  0.5566989932752217  0.6085975533037867  0.5779880110188703   T   T   T
  0.5573710601339440  0.5198498396586282  0.5780084718584502   T   T   T
  0.6196149513863539  0.3791204628193619  0.4982169216909179   T   T   T
  0.6196280857149087  0.8119053697288933  0.4983891207109074   T   T   T
  0.5180314947828789  0.5444986508652832  0.5697759538333358   T   T   F
 
  0.00000000E+00  0.00000000E+00  0.00000000E+00
  0.00000000E+00  0.00000000E+00  0.00000000E+00
  0.00000000E+00  0.00000000E+00  0.00000000E+00
  0.00000000E+00  0.00000000E+00  0.00000000E+00
  0.00000000E+00  0.00000000E+00  0.00000000E+00
  0.00000000E+00  0.00000000E+00  0.00000000E+00
  0.00000000E+00  0.00000000E+00  0.00000000E+00
  0.00000000E+00  0.00000000E+00  0.00000000E+00
  0.00000000E+00  0.00000000E+00  0.00000000E+00
  0.00000000E+00  0.00000000E+00  0.00000000E+00
  0.00000000E+00  0.00000000E+00  0.00000000E+00
  0.00000000E+00  0.00000000E+00  0.00000000E+00
  0.00000000E+00  0.00000000E+00  0.00000000E+00
  0.00000000E+00  0.00000000E+00  0.00000000E+00
  0.00000000E+00  0.00000000E+00  0.00000000E+00
  0.00000000E+00  0.00000000E+00  0.00000000E+00
  0.00000000E+00  0.00000000E+00  0.00000000E+00
  0.00000000E+00  0.00000000E+00  0.00000000E+00
  0.00000000E+00  0.00000000E+00  0.00000000E+00
  0.00000000E+00  0.00000000E+00  0.00000000E+00
  0.00000000E+00  0.00000000E+00  0.00000000E+00
  0.00000000E+00  0.00000000E+00  0.00000000E+00
  0.00000000E+00  0.00000000E+00  0.00000000E+00
  0.00000000E+00  0.00000000E+00  0.00000000E+00
  0.00000000E+00  0.00000000E+00  0.00000000E+00
  0.00000000E+00  0.00000000E+00  0.00000000E+00
  0.00000000E+00  0.00000000E+00  0.00000000E+00
  0.00000000E+00  0.00000000E+00  0.00000000E+00
  0.00000000E+00  0.00000000E+00  0.00000000E+00
  0.00000000E+00  0.00000000E+00  0.00000000E+00
  0.00000000E+00  0.00000000E+00  0.00000000E+00
  0.00000000E+00  0.00000000E+00  0.00000000E+00
  0.00000000E+00  0.00000000E+00  0.00000000E+00
  0.00000000E+00  0.00000000E+00  0.00000000E+00
  0.00000000E+00  0.00000000E+00  0.00000000E+00
  0.00000000E+00  0.00000000E+00  0.00000000E+00
  0.00000000E+00  0.00000000E+00  0.00000000E+00
  0.00000000E+00  0.00000000E+00  0.00000000E+00
  0.00000000E+00  0.00000000E+00  0.00000000E+00
  0.00000000E+00  0.00000000E+00  0.00000000E+00
  0.00000000E+00  0.00000000E+00  0.00000000E+00
  0.00000000E+00  0.00000000E+00  0.00000000E+00
  0.00000000E+00  0.00000000E+00  0.00000000E+00
  0.00000000E+00  0.00000000E+00  0.00000000E+00
  0.00000000E+00  0.00000000E+00  0.00000000E+00
  0.00000000E+00  0.00000000E+00  0.00000000E+00
  0.00000000E+00  0.00000000E+00  0.00000000E+00
  0.00000000E+00  0.00000000E+00  0.00000000E+00
  0.00000000E+00  0.00000000E+00  0.00000000E+00
  0.00000000E+00  0.00000000E+00  0.00000000E+00
  0.00000000E+00  0.00000000E+00  0.00000000E+00
  0.00000000E+00  0.00000000E+00  0.00000000E+00
  0.00000000E+00  0.00000000E+00  0.00000000E+00
  0.00000000E+00  0.00000000E+00  0.00000000E+00
  0.00000000E+00  0.00000000E+00  0.00000000E+00
  0.00000000E+00  0.00000000E+00  0.00000000E+00
  0.00000000E+00  0.00000000E+00  0.00000000E+00
  0.00000000E+00  0.00000000E+00  0.00000000E+00
  0.00000000E+00  0.00000000E+00  0.00000000E+00
  0.00000000E+00  0.00000000E+00  0.00000000E+00
  0.00000000E+00  0.00000000E+00  0.00000000E+00
  0.00000000E+00  0.00000000E+00  0.00000000E+00
  0.00000000E+00  0.00000000E+00  0.00000000E+00
  0.00000000E+00  0.00000000E+00  0.00000000E+00
  0.00000000E+00  0.00000000E+00  0.00000000E+00
  0.00000000E+00  0.00000000E+00  0.00000000E+00
  0.00000000E+00  0.00000000E+00  0.00000000E+00
  0.00000000E+00  0.00000000E+00  0.00000000E+00
  0.00000000E+00  0.00000000E+00  0.00000000E+00
  0.00000000E+00  0.00000000E+00  0.00000000E+00
  0.00000000E+00  0.00000000E+00  0.00000000E+00
  0.00000000E+00  0.00000000E+00  0.00000000E+00
  0.00000000E+00  0.00000000E+00  0.00000000E+00
  0.00000000E+00  0.00000000E+00  0.00000000E+00
  0.00000000E+00  0.00000000E+00  0.00000000E+00
  0.00000000E+00  0.00000000E+00  0.00000000E+00
  0.00000000E+00  0.00000000E+00  0.00000000E+00
  0.00000000E+00  0.00000000E+00  0.00000000E+00
  0.00000000E+00  0.00000000E+00  0.00000000E+00
  0.00000000E+00  0.00000000E+00  0.00000000E+00
  0.00000000E+00  0.00000000E+00  0.00000000E+00
  0.00000000E+00  0.00000000E+00  0.00000000E+00
  0.00000000E+00  0.00000000E+00  0.00000000E+00
  0.00000000E+00  0.00000000E+00  0.00000000E+00
  0.00000000E+00  0.00000000E+00  0.00000000E+00
  0.00000000E+00  0.00000000E+00  0.00000000E+00
  0.00000000E+00  0.00000000E+00  0.00000000E+00
  0.00000000E+00  0.00000000E+00  0.00000000E+00
  0.00000000E+00  0.00000000E+00  0.00000000E+00
  0.00000000E+00  0.00000000E+00  0.00000000E+00
  0.00000000E+00  0.00000000E+00  0.00000000E+00
  0.00000000E+00  0.00000000E+00  0.00000000E+00
  0.00000000E+00  0.00000000E+00  0.00000000E+00
  0.00000000E+00  0.00000000E+00  0.00000000E+00
  0.00000000E+00  0.00000000E+00  0.00000000E+00
  0.00000000E+00  0.00000000E+00  0.00000000E+00
  0.00000000E+00  0.00000000E+00  0.00000000E+00
