C4                                      
    1.000000000000000     
    17.2710380553999983    0.0000000000000000    0.0000000000000000
    -8.6355190276999991   14.9571577057000002    0.0000000000000000
     0.0000000000000000    0.0000000000000000   15.0000000000000000
   C    F    N 
    82     2     6
Direct
  0.0022218077554129  0.0011657296321042  0.2500000031238384
 -0.0001396846100872  0.1426145547427355  0.2499999861648024
 -0.0026030888540738  0.2841304295430009  0.2499999615834319
 -0.0029456996560302  0.4273624177031104  0.2500000027735562
 -0.0015008546502726  0.5711256035791583  0.2500000329933310
  0.0020303460023631  0.7152426421392845  0.2499999509086265
  0.0038834112860862  0.8591635796782078  0.2499999847050601
  0.1457470355002365  0.0023195244184023  0.2499999672205056
  0.1444922903088130  0.1446469536083397  0.2499999889394967
  0.1407933441043556  0.2843985850164679  0.2499999969018851
  0.1384644555112733  0.4258510651228727  0.2499999532312073
  0.1403108125178104  0.5695691490969600  0.2499999699704435
  0.1428759446565997  0.7139791291888374  0.2500000250117735
  0.1451863669075430  0.8582840155958662  0.2499999665710949
  0.2875424743629907  0.0012891598145080  0.2499999748875436
  0.2882202170701726  0.1463236000690678  0.2499999960954348
  0.2881323295061966  0.2934309377128948  0.2500000371828051
  0.2811222468553496  0.4260582127084917  0.2499999773689687
  0.2816706569760062  0.5629815215691208  0.2499999020492824
  0.2832833808407174  0.7116379153085834  0.2499997505660407
  0.2866124388532360  0.8568148963207564  0.2499999845052967
  0.4293855933992792  0.0000344875454725  0.2499999040155631
  0.4297198962294202  0.1453639875316670  0.2499999675478970
  0.4284249036959206  0.8546641451681475  0.2499997978865626
  0.5713240312576516 -0.0014199063333324  0.2499998968624907
  0.5711124323023105  0.1433208176267431  0.2499999152570407
  0.5733392734675979  0.2914060055989690  0.2499999884500058
  0.5723759582246069  0.8540581100548894  0.2499999970672119
  0.7145790159736005 -0.0015914718856402  0.2499999806968916
  0.7133367592152550  0.1422357948131480  0.2499999549618433
  0.7127017400228078  0.2866164093591883  0.2500000056469401
  0.7086183997273786  0.4280661917148590  0.2500000231579489
  0.7191927070001582  0.8573133062176335  0.2500000867300254
  0.8589373961051501  0.0003536149931300  0.2500000347347187
  0.8560669881776996  0.1419029391206925  0.2499999851036306
  0.8549185011057769  0.2849394789495818  0.2500000270457853
  0.8548550776711681  0.4287365317144793  0.2500000434449792
  0.8562801158659215  0.5724721613075423  0.2500000171287520
  0.8616884384065561  0.7164099722387791  0.2500000569941799
  0.8613068559192973  0.8578584693135103  0.2500000665674921
  0.0491292837554837  0.0963839677161231  0.2499999902839369
  0.0456608416711894  0.2369891261012313  0.2499999744253817
  0.0436721680130556  0.3789387449788413  0.2499999555222607
  0.0452550005244681  0.5226738682965212  0.2500000129834049
  0.0478453359849933  0.6666373794609248  0.2500000142932941
  0.0502446112179512  0.8106557365483342  0.2499999458773554
  0.0505698181440953  0.9541985056542392  0.2499999819863848
  0.1928406363811387  0.0975658777691356  0.2499999830216460
  0.1912733218827455  0.2398038078057088  0.2500000079596504
  0.1859666682231660  0.3784280055586019  0.2499999916303526
  0.1862042711491644  0.5202927580030466  0.2499999475287003
  0.1885742932818354  0.6651744761348219  0.2499999435243970
  0.1916194500170560  0.8096805513199624  0.2500000055701725
  0.1927497032907356  0.9538458328832470  0.2499999678007251
  0.3348851626130160  0.0974718533119163  0.2499999818849240
  0.3390414754392029  0.2430627947729664  0.2500000252066839
  0.3284147555525721  0.6619048072568161  0.2499997469884257
  0.3329899777538179  0.8075460741311198  0.2499998772953575
  0.3342308024931146  0.9525238694593033  0.2499999634215125
  0.4764622387301218  0.0959649127152661  0.2499999268123266
  0.4743298902003809  0.2418839875387010  0.2499999895695034
  0.4752286655013640  0.8054019675128370  0.2499999497614702
  0.4762180871979532  0.9509884621865162  0.2499998465624091
  0.6181263506935110  0.0944655270482543  0.2499999136564292
  0.6178360875080283  0.2394795032503671  0.2499999006640338
  0.6191709683723433  0.9501345548150724  0.2499999768962177
  0.7610147058348051  0.0941122262153008  0.2499999695008977
  0.7601015791907625  0.2377535606161946  0.2499999435367387
  0.7594793514609476  0.3822064611433860  0.2500001560127990
  0.7594726929788843  0.5292894709050574  0.2499999675731926
  0.7665222535837304  0.6689186008824904  0.2500000858712863
  0.7659048215545177  0.8051188826723740  0.2500000622806539
  0.7642365431577517  0.9521785981550115  0.2500000827796354
  0.9048041847470151  0.0948872327713634  0.2499999924082033
  0.9025115849471510  0.2369332500122892  0.2499999956501915
  0.9019072977993765  0.3804709093993177  0.2499999929696451
  0.9031071361185010  0.5241421659074658  0.2499999872354550
  0.9068649443289285  0.6675769498293932  0.2499999928788928
  0.9091149765540475  0.8112892198950117  0.2500000492376351
  0.9071531304569286  0.9529506232064020  0.2500000376510732
  0.4209652155414005  0.7107887520567970  0.2500004650788333
  0.6266456608857931  0.8137470011538959  0.2499997814140202
  0.5925272688280773  0.7263237582860992  0.2499985475189792
  0.4550428124530635  0.6574105448873961  0.2500029389222276
  0.4287759066672813  0.2868446006948719  0.2500000151229122
  0.7175717322897623  0.5769571012614798  0.2500000353694886
  0.7221227075647260  0.7152497920425456  0.2500000923916992
  0.3300439878854435  0.3830122459913419  0.2500000309991603
  0.3254252953331263  0.5168270195983250  0.2499998641390598
  0.6188656007773842  0.3819516985047792  0.2499999302759814
 
  0.00000000E+00  0.00000000E+00  0.00000000E+00
  0.00000000E+00  0.00000000E+00  0.00000000E+00
  0.00000000E+00  0.00000000E+00  0.00000000E+00
  0.00000000E+00  0.00000000E+00  0.00000000E+00
  0.00000000E+00  0.00000000E+00  0.00000000E+00
  0.00000000E+00  0.00000000E+00  0.00000000E+00
  0.00000000E+00  0.00000000E+00  0.00000000E+00
  0.00000000E+00  0.00000000E+00  0.00000000E+00
  0.00000000E+00  0.00000000E+00  0.00000000E+00
  0.00000000E+00  0.00000000E+00  0.00000000E+00
  0.00000000E+00  0.00000000E+00  0.00000000E+00
  0.00000000E+00  0.00000000E+00  0.00000000E+00
  0.00000000E+00  0.00000000E+00  0.00000000E+00
  0.00000000E+00  0.00000000E+00  0.00000000E+00
  0.00000000E+00  0.00000000E+00  0.00000000E+00
  0.00000000E+00  0.00000000E+00  0.00000000E+00
  0.00000000E+00  0.00000000E+00  0.00000000E+00
  0.00000000E+00  0.00000000E+00  0.00000000E+00
  0.00000000E+00  0.00000000E+00  0.00000000E+00
  0.00000000E+00  0.00000000E+00  0.00000000E+00
  0.00000000E+00  0.00000000E+00  0.00000000E+00
  0.00000000E+00  0.00000000E+00  0.00000000E+00
  0.00000000E+00  0.00000000E+00  0.00000000E+00
  0.00000000E+00  0.00000000E+00  0.00000000E+00
  0.00000000E+00  0.00000000E+00  0.00000000E+00
  0.00000000E+00  0.00000000E+00  0.00000000E+00
  0.00000000E+00  0.00000000E+00  0.00000000E+00
  0.00000000E+00  0.00000000E+00  0.00000000E+00
  0.00000000E+00  0.00000000E+00  0.00000000E+00
  0.00000000E+00  0.00000000E+00  0.00000000E+00
  0.00000000E+00  0.00000000E+00  0.00000000E+00
  0.00000000E+00  0.00000000E+00  0.00000000E+00
  0.00000000E+00  0.00000000E+00  0.00000000E+00
  0.00000000E+00  0.00000000E+00  0.00000000E+00
  0.00000000E+00  0.00000000E+00  0.00000000E+00
  0.00000000E+00  0.00000000E+00  0.00000000E+00
  0.00000000E+00  0.00000000E+00  0.00000000E+00
  0.00000000E+00  0.00000000E+00  0.00000000E+00
  0.00000000E+00  0.00000000E+00  0.00000000E+00
  0.00000000E+00  0.00000000E+00  0.00000000E+00
  0.00000000E+00  0.00000000E+00  0.00000000E+00
  0.00000000E+00  0.00000000E+00  0.00000000E+00
  0.00000000E+00  0.00000000E+00  0.00000000E+00
  0.00000000E+00  0.00000000E+00  0.00000000E+00
  0.00000000E+00  0.00000000E+00  0.00000000E+00
  0.00000000E+00  0.00000000E+00  0.00000000E+00
  0.00000000E+00  0.00000000E+00  0.00000000E+00
  0.00000000E+00  0.00000000E+00  0.00000000E+00
  0.00000000E+00  0.00000000E+00  0.00000000E+00
  0.00000000E+00  0.00000000E+00  0.00000000E+00
  0.00000000E+00  0.00000000E+00  0.00000000E+00
  0.00000000E+00  0.00000000E+00  0.00000000E+00
  0.00000000E+00  0.00000000E+00  0.00000000E+00
  0.00000000E+00  0.00000000E+00  0.00000000E+00
  0.00000000E+00  0.00000000E+00  0.00000000E+00
  0.00000000E+00  0.00000000E+00  0.00000000E+00
  0.00000000E+00  0.00000000E+00  0.00000000E+00
  0.00000000E+00  0.00000000E+00  0.00000000E+00
  0.00000000E+00  0.00000000E+00  0.00000000E+00
  0.00000000E+00  0.00000000E+00  0.00000000E+00
  0.00000000E+00  0.00000000E+00  0.00000000E+00
  0.00000000E+00  0.00000000E+00  0.00000000E+00
  0.00000000E+00  0.00000000E+00  0.00000000E+00
  0.00000000E+00  0.00000000E+00  0.00000000E+00
  0.00000000E+00  0.00000000E+00  0.00000000E+00
  0.00000000E+00  0.00000000E+00  0.00000000E+00
  0.00000000E+00  0.00000000E+00  0.00000000E+00
  0.00000000E+00  0.00000000E+00  0.00000000E+00
  0.00000000E+00  0.00000000E+00  0.00000000E+00
  0.00000000E+00  0.00000000E+00  0.00000000E+00
  0.00000000E+00  0.00000000E+00  0.00000000E+00
  0.00000000E+00  0.00000000E+00  0.00000000E+00
  0.00000000E+00  0.00000000E+00  0.00000000E+00
  0.00000000E+00  0.00000000E+00  0.00000000E+00
  0.00000000E+00  0.00000000E+00  0.00000000E+00
  0.00000000E+00  0.00000000E+00  0.00000000E+00
  0.00000000E+00  0.00000000E+00  0.00000000E+00
  0.00000000E+00  0.00000000E+00  0.00000000E+00
  0.00000000E+00  0.00000000E+00  0.00000000E+00
  0.00000000E+00  0.00000000E+00  0.00000000E+00
  0.00000000E+00  0.00000000E+00  0.00000000E+00
  0.00000000E+00  0.00000000E+00  0.00000000E+00
  0.00000000E+00  0.00000000E+00  0.00000000E+00
  0.00000000E+00  0.00000000E+00  0.00000000E+00
  0.00000000E+00  0.00000000E+00  0.00000000E+00
  0.00000000E+00  0.00000000E+00  0.00000000E+00
  0.00000000E+00  0.00000000E+00  0.00000000E+00
  0.00000000E+00  0.00000000E+00  0.00000000E+00
  0.00000000E+00  0.00000000E+00  0.00000000E+00
  0.00000000E+00  0.00000000E+00  0.00000000E+00
