C4                                      
    1.000000000000000     
    17.2710380553999983    0.0000000000000000    0.0000000000000000
    -8.6355190276999991   14.9571577057000002    0.0000000000000000
     0.0000000000000000    0.0000000000000000   15.0000000000000000
   C    H    N 
    86     6     2
Direct
  0.0001760333393326 -0.0000227797786872  0.2500000693051906
 -0.0009855294812987  0.1421698847213295  0.2500000302898949
 -0.0013465319895133  0.2850646564163281  0.2499999835314368
 -0.0006051860281460  0.4282673245882351  0.2499999822192668
 -0.0000158888140381  0.5715046376137425  0.2500000244083000
  0.0012382331481163  0.7149373491492567  0.2499991124682745
  0.0019800420883531  0.8581822344325439  0.2500000463530487
  0.1436599283656970  0.0006487101583561  0.2499999577375821
  0.1424630664362816  0.1429246434190896  0.2500000785343532
  0.1405661583251750  0.2841957405374632  0.2500000530487108
  0.1418583131635904  0.4273771221051226  0.2499999974023540
  0.1429509635561554  0.5706052731154685  0.2499999620036578
  0.1434941053685718  0.7140721922106049  0.2500000061038324
  0.1440241163450905  0.8575217484382289  0.2499999408990715
  0.2861038056630116  0.0003430674722373  0.2499999585275637
  0.2855372034113183  0.1436728210164087  0.2500000723988404
  0.2848128181951045  0.2890597523040538  0.2500001013662937
  0.2836799016464693  0.4237204402945287  0.2500000704994852
  0.2861998916258991  0.5680617439663522  0.2500000104131721
  0.2858444253317318  0.7134209330089049  0.2499999607542994
  0.2861692603253045  0.8571040033258245  0.2499999991311521
  0.4288791776487163  0.0002806124723439  0.2500000655190059
  0.4284318343214485  0.1435668179935826  0.2499999544322673
  0.4263679447427130  0.2839665970766252  0.2499999503041268
  0.4269220821871253  0.7150573768627386  0.2500000710388867
  0.4286768051099350  0.8568005725994713  0.2500000225482616
  0.5713541119779576 -0.0003237532219812  0.2500000395242803
  0.5712626614483532  0.1429585685434249  0.2499991232954762
  0.5719898813082767  0.2869156330529225  0.2499999326428746
  0.5725031553201723  0.8562234859287571  0.2500000614009509
  0.7141665722973390 -0.0009541008804568  0.2500000165987776
  0.7139755894203469  0.1427273197488565  0.2500000387020569
  0.7139363957157984  0.2863525338975481  0.2500000913747722
  0.7135494394115505  0.4293923299130360  0.2500000532275275
  0.7175470689134409  0.5767853957466066  0.2499999784789321
  0.7141028877181035  0.8555802944654016  0.2500000173779904
  0.8569287553668776 -0.0004901675328433  0.2500000327428972
  0.8563600208334610  0.1423712258141885  0.2500000131891409
  0.8563040576834101  0.2855478936868124  0.2500000282706522
  0.8568402281459878  0.4289749876294374  0.2500000729023001
  0.8573839831258631  0.5727869953692517  0.2500000308173614
  0.8595340759569183  0.7164564382109389  0.2499999760111911
  0.8584698026991299  0.8571739032065369  0.2500000136395002
  0.0473484472546694  0.0951600357173696  0.2500000754267138
  0.0455829378843356  0.2369292862462488  0.2500000138333553
  0.0464152944956862  0.3802111695678031  0.2499999693181379
  0.0475992693147796  0.5236037808067073  0.2499999788093820
  0.0482216192870219  0.6668573831887663  0.2500000535158796
  0.0490112846360177  0.8101011976192631  0.2499999472303777
  0.0485457804987015  0.9529508491765961  0.2499999477443560
  0.1904480789397473  0.0954938816774809  0.2499999560633643
  0.1889717100208512  0.2378829217073654  0.2500000963336121
  0.1881032704693437  0.3786269711749636  0.2500000523632515
  0.1902125353063250  0.5223839775942433  0.2499999792690147
  0.1906365879680555  0.6661799207116504  0.2499999784381436
  0.1912436800140866  0.8095792218027741  0.2499998948081879
  0.1912248749923526  0.9527211066309389  0.2500002787481916
  0.3333535354019768  0.0960240489184557  0.2500000009395631
  0.3334284346922337  0.2393523680074582  0.2500001117438290
  0.3301615426250959  0.5183935887631885  0.2500000540506365
  0.3340439412475505  0.6658858228595688  0.2500000034138721
  0.3335738193038646  0.8088941346890597  0.2500000047923348
  0.3335161855727524  0.9524254238074932  0.2499999560794885
  0.4761449311775983  0.0955715677002787  0.2499996381506096
  0.4751718860264336  0.2389590826502841  0.2500008496027845
  0.4756866762933022  0.8084745821111226  0.2500000550327111
  0.4762416473226417  0.9523382173005801  0.2500000358712712
  0.6185843755791343  0.0949501436623598  0.2499995929762693
  0.6188414027596545  0.2384694317188998  0.2499996272153776
  0.6207051578503181  0.3803517603811132  0.2500000629587262
  0.6212476992860763  0.8110809741997421  0.2500000398912695
  0.6190886066063871  0.9516261611303197  0.2500000719239315
  0.7614253702949558  0.0948019334603903  0.2500000532173983
  0.7613310726400339  0.2380885785615738  0.2500000369455843
  0.7616231263773903  0.3817801698795391  0.2500001284506172
  0.7614537460302234  0.5271847206311283  0.2500000091362082
  0.7640179897279235  0.6713506158549173  0.2499999567244934
  0.7626657545723330  0.8058144791333315  0.2499999903149085
  0.7618548122365582  0.9512239471851052  0.2500000122172437
  0.9038820084944303  0.0943643566737232  0.2500000170744147
  0.9035885280427877  0.2376127881121380  0.2499999992785915
  0.9040649428329289  0.3810934605271956  0.2500000312246944
  0.9046199645707296  0.5245405966882327  0.2500000466540175
  0.9058211119836787  0.6677945044046918  0.2500000378344436
  0.9069826644148404  0.8109212065486583  0.2500000281666200
  0.9049976394915220  0.9521449586051193  0.2500000639984057
  0.4596180206777932  0.3565975997669941  0.2500000451264778
  0.4028209887192225  0.5509794850339742  0.2500000416402775
  0.6448889559728279  0.5442477665247234  0.2500000027957432
  0.5841646398352965  0.4163556972061344  0.2499999922880746
  0.5878398637617525  0.7384438970108141  0.2500000327308079
  0.4634196791412497  0.6790110972018440  0.2500001054593688
  0.7175233968327592  0.7163153061200885  0.2499999744961680
  0.3300354208082648  0.3786186501996980  0.2500000662457869
 
  0.00000000E+00  0.00000000E+00  0.00000000E+00
  0.00000000E+00  0.00000000E+00  0.00000000E+00
  0.00000000E+00  0.00000000E+00  0.00000000E+00
  0.00000000E+00  0.00000000E+00  0.00000000E+00
  0.00000000E+00  0.00000000E+00  0.00000000E+00
  0.00000000E+00  0.00000000E+00  0.00000000E+00
  0.00000000E+00  0.00000000E+00  0.00000000E+00
  0.00000000E+00  0.00000000E+00  0.00000000E+00
  0.00000000E+00  0.00000000E+00  0.00000000E+00
  0.00000000E+00  0.00000000E+00  0.00000000E+00
  0.00000000E+00  0.00000000E+00  0.00000000E+00
  0.00000000E+00  0.00000000E+00  0.00000000E+00
  0.00000000E+00  0.00000000E+00  0.00000000E+00
  0.00000000E+00  0.00000000E+00  0.00000000E+00
  0.00000000E+00  0.00000000E+00  0.00000000E+00
  0.00000000E+00  0.00000000E+00  0.00000000E+00
  0.00000000E+00  0.00000000E+00  0.00000000E+00
  0.00000000E+00  0.00000000E+00  0.00000000E+00
  0.00000000E+00  0.00000000E+00  0.00000000E+00
  0.00000000E+00  0.00000000E+00  0.00000000E+00
  0.00000000E+00  0.00000000E+00  0.00000000E+00
  0.00000000E+00  0.00000000E+00  0.00000000E+00
  0.00000000E+00  0.00000000E+00  0.00000000E+00
  0.00000000E+00  0.00000000E+00  0.00000000E+00
  0.00000000E+00  0.00000000E+00  0.00000000E+00
  0.00000000E+00  0.00000000E+00  0.00000000E+00
  0.00000000E+00  0.00000000E+00  0.00000000E+00
  0.00000000E+00  0.00000000E+00  0.00000000E+00
  0.00000000E+00  0.00000000E+00  0.00000000E+00
  0.00000000E+00  0.00000000E+00  0.00000000E+00
  0.00000000E+00  0.00000000E+00  0.00000000E+00
  0.00000000E+00  0.00000000E+00  0.00000000E+00
  0.00000000E+00  0.00000000E+00  0.00000000E+00
  0.00000000E+00  0.00000000E+00  0.00000000E+00
  0.00000000E+00  0.00000000E+00  0.00000000E+00
  0.00000000E+00  0.00000000E+00  0.00000000E+00
  0.00000000E+00  0.00000000E+00  0.00000000E+00
  0.00000000E+00  0.00000000E+00  0.00000000E+00
  0.00000000E+00  0.00000000E+00  0.00000000E+00
  0.00000000E+00  0.00000000E+00  0.00000000E+00
  0.00000000E+00  0.00000000E+00  0.00000000E+00
  0.00000000E+00  0.00000000E+00  0.00000000E+00
  0.00000000E+00  0.00000000E+00  0.00000000E+00
  0.00000000E+00  0.00000000E+00  0.00000000E+00
  0.00000000E+00  0.00000000E+00  0.00000000E+00
  0.00000000E+00  0.00000000E+00  0.00000000E+00
  0.00000000E+00  0.00000000E+00  0.00000000E+00
  0.00000000E+00  0.00000000E+00  0.00000000E+00
  0.00000000E+00  0.00000000E+00  0.00000000E+00
  0.00000000E+00  0.00000000E+00  0.00000000E+00
  0.00000000E+00  0.00000000E+00  0.00000000E+00
  0.00000000E+00  0.00000000E+00  0.00000000E+00
  0.00000000E+00  0.00000000E+00  0.00000000E+00
  0.00000000E+00  0.00000000E+00  0.00000000E+00
  0.00000000E+00  0.00000000E+00  0.00000000E+00
  0.00000000E+00  0.00000000E+00  0.00000000E+00
  0.00000000E+00  0.00000000E+00  0.00000000E+00
  0.00000000E+00  0.00000000E+00  0.00000000E+00
  0.00000000E+00  0.00000000E+00  0.00000000E+00
  0.00000000E+00  0.00000000E+00  0.00000000E+00
  0.00000000E+00  0.00000000E+00  0.00000000E+00
  0.00000000E+00  0.00000000E+00  0.00000000E+00
  0.00000000E+00  0.00000000E+00  0.00000000E+00
  0.00000000E+00  0.00000000E+00  0.00000000E+00
  0.00000000E+00  0.00000000E+00  0.00000000E+00
  0.00000000E+00  0.00000000E+00  0.00000000E+00
  0.00000000E+00  0.00000000E+00  0.00000000E+00
  0.00000000E+00  0.00000000E+00  0.00000000E+00
  0.00000000E+00  0.00000000E+00  0.00000000E+00
  0.00000000E+00  0.00000000E+00  0.00000000E+00
  0.00000000E+00  0.00000000E+00  0.00000000E+00
  0.00000000E+00  0.00000000E+00  0.00000000E+00
  0.00000000E+00  0.00000000E+00  0.00000000E+00
  0.00000000E+00  0.00000000E+00  0.00000000E+00
  0.00000000E+00  0.00000000E+00  0.00000000E+00
  0.00000000E+00  0.00000000E+00  0.00000000E+00
  0.00000000E+00  0.00000000E+00  0.00000000E+00
  0.00000000E+00  0.00000000E+00  0.00000000E+00
  0.00000000E+00  0.00000000E+00  0.00000000E+00
  0.00000000E+00  0.00000000E+00  0.00000000E+00
  0.00000000E+00  0.00000000E+00  0.00000000E+00
  0.00000000E+00  0.00000000E+00  0.00000000E+00
  0.00000000E+00  0.00000000E+00  0.00000000E+00
  0.00000000E+00  0.00000000E+00  0.00000000E+00
  0.00000000E+00  0.00000000E+00  0.00000000E+00
  0.00000000E+00  0.00000000E+00  0.00000000E+00
  0.00000000E+00  0.00000000E+00  0.00000000E+00
  0.00000000E+00  0.00000000E+00  0.00000000E+00
  0.00000000E+00  0.00000000E+00  0.00000000E+00
  0.00000000E+00  0.00000000E+00  0.00000000E+00
  0.00000000E+00  0.00000000E+00  0.00000000E+00
  0.00000000E+00  0.00000000E+00  0.00000000E+00
  0.00000000E+00  0.00000000E+00  0.00000000E+00
  0.00000000E+00  0.00000000E+00  0.00000000E+00
