C4                                      
    1.000000000000000     
    17.2710380553999983    0.0000000000000000    0.0000000000000000
    -8.6355190276999991   14.9571577057000002    0.0000000000000000
     0.0000000000000000    0.0000000000000000   15.0000000000000000
   C    H    F 
    88     4     4
Direct
 -0.0000476490235853 -0.0000285918399615  0.2499996082168742
 -0.0001114215272101  0.1427725603262601  0.2499995235785250
 -0.0001106275039684  0.2856568196330695  0.2500012229630070
 -0.0001929875794952  0.4285999039634947  0.2500004634733149
 -0.0000979125115767  0.5714271817131150  0.2500009907712605
  0.0005453776458993  0.7144794976831015  0.2499999811195046
  0.0005609212782483  0.8575682310068750  0.2499997186969400
  0.1429815095731574  0.0001024268665020  0.2499996470093399
  0.1428744479505996  0.1429013867347415  0.2499984663248196
  0.1421608832979924  0.2850824142263071  0.2499995670660192
  0.1421191106167817  0.4285261830669354  0.2500004706724235
  0.1428590461454250  0.5715029807273040  0.2499994010265047
  0.1429220073149529  0.7143426969738720  0.2500009186180909
  0.1428242934319797  0.8571324814913993  0.2500007677807772
  0.2852399569858509 -0.0006292000131535  0.2500012895938916
  0.2855612913261067  0.1420866018472672  0.2500001305194892
  0.2861513282531611  0.2858165871389117  0.2500002302955403
  0.2833517497025148  0.4274014038999941  0.2500025395453990
  0.2861290601095181  0.5717619852059708  0.2500000367064660
  0.2855578019901286  0.7149890049714274  0.2499989343347571
  0.2852146732106766  0.8573073906102845  0.2500001895516396
  0.4284602263939427 -0.0001190495543363  0.2500011374643960
  0.4282191540544572  0.1410925725206184  0.2500006932404454
  0.4277078758514660  0.2804373219133579  0.2499996659129626
  0.4277517382968563  0.7186486888230356  0.2499994923897743
  0.4281507108138310  0.8584310525397092  0.2499996267784414
  0.5715951874840777  0.0009768088888852  0.2499994743375089
  0.5715885997828939  0.1421236709540251  0.2499998188438548
  0.5722269827691344  0.2837738712948559  0.2499997907926806
  0.5722113380514591  0.8599939316826480  0.2500005408088563
  0.7147257125060633  0.0008671287448329  0.2499991666664061
  0.7148664173950896  0.1431702769849653  0.2499995947650747
  0.7146750522408779  0.2852939745405440  0.2499993492592849
  0.7129060217580934  0.4265002934572136  0.2499993531388163
  0.7190715300297191  0.5739622572652739  0.2499984650625881
  0.7190063386546365  0.7167372492298015  0.2499894650931108
  0.7129641683349321  0.8580054478989262  0.2499993633774127
  0.8571737075438236  0.0003314663455669  0.2499996962347309
  0.8573799377342827  0.1430982507070777  0.2500006562095147
  0.8573322695748176  0.2856946333002161  0.2500006777993198
  0.8570556911780265  0.4283042274790498  0.2499993832545012
  0.8572665665183907  0.5715547186362928  0.2499996661564735
  0.8589822578544786  0.7153296228750368  0.2500017838399678
  0.8572590934131705  0.8572694366377770  0.2499996958595574
  0.0476926596269969  0.0953232563330123  0.2499987233130477
  0.0470282447325345  0.2376545877622060  0.2499998821744162
  0.0469865915027739  0.3808447214215151  0.2500011610408584
  0.0476415401451506  0.5238632137135051  0.2500005818282606
  0.0477433654759601  0.6667147051959407  0.2500007414863133
  0.0477663174999539  0.8096162233277315  0.2499998042618680
  0.0477819503518490  0.9525008826261294  0.2499990038255500
  0.1904094607164382  0.0949416825628242  0.2499998216984097
  0.1902024786139117  0.2379797972254362  0.2499989324677230
  0.1883410383557525  0.3798914332378243  0.2500003116983214
  0.1901381904804447  0.5236913105393545  0.2500004508157803
  0.1903973366376612  0.6669950247448172  0.2500000365075720
  0.1903239355316653  0.8096312213664615  0.2500008652620621
  0.1903273541549465  0.9521338666092719  0.2500007272880261
  0.3330622372527960  0.0944997259765449  0.2500007863782880
  0.3346016832217715  0.2373500417040991  0.2499993237096885
  0.3282484588562009  0.3784840432172701  0.2500012637763470
  0.3281956274199661  0.5212012646075297  0.2500050750254578
  0.3346209807236117  0.6687286394225874  0.2499995677572769
  0.3330335358219951  0.8100318423305787  0.2499998644903737
  0.3329334052935798  0.9521580770703418  0.2500012198484509
  0.4763346240961639  0.0943801591521603  0.2500007619629153
  0.4755925040581516  0.2354398340654272  0.2499999752060221
  0.4755944710884296  0.8115451143846872  0.2500000811455591
  0.4763220940371713  0.9532456307705475  0.2500003171713625
  0.6194223571370463  0.0954811781388844  0.2499994938565286
  0.6196250489820441  0.2368755438793677  0.2499994957497009
  0.6199079035730887  0.3766349319310126  0.2500000177703807
  0.6199645772875763  0.8149386556346003  0.2500014434974165
  0.6196732935010245  0.9543079704496594  0.2499991223322302
  0.7624781336351396  0.0959211647973864  0.2500001587027296
  0.7624545359850068  0.2380299159143364  0.2499997986942851
  0.7619699111404605  0.3802960788613280  0.2499992103835998
  0.7612517734340951  0.5234154788300160  0.2499991546862171
  0.7638547727327104  0.6677655058992760  0.2499988760636321
  0.7612545538452344  0.8094304840401495  0.2499950446997538
  0.7620762210363794  0.9532464715159905  0.2499988374020390
  0.9047489422960524  0.0951431452842360  0.2500001068607323
  0.9048250719258073  0.2381268613601326  0.2500014725854721
  0.9046317461151825  0.3810133977253879  0.2500001907672751
  0.9046772331506552  0.5238204292781163  0.2499998656828532
  0.9052930652157359  0.6667524165768678  0.2500010472401993
  0.9053377906065044  0.8101932204776876  0.2500002395577658
  0.9047027234076270  0.9523759209180124  0.2500008312340131
  0.4651561886438563  0.3521174292588591  0.2499994243416652
  0.5824234399086260  0.4108158998155630  0.2500006835157960
  0.5825084375781630  0.7432729002669072  0.2500033726472430
  0.4651991568210634  0.6844195604977859  0.2499993488604319
  0.4189499228733933  0.4276134255030987  0.2500162787340260
  0.4188912808617675  0.5627560112288363  0.2500121332925454
  0.6282012087245805  0.6675404354871333  0.2499755388465569
  0.6282777566786510  0.5323187536344748  0.2499988767046982
 
  0.00000000E+00  0.00000000E+00  0.00000000E+00
  0.00000000E+00  0.00000000E+00  0.00000000E+00
  0.00000000E+00  0.00000000E+00  0.00000000E+00
  0.00000000E+00  0.00000000E+00  0.00000000E+00
  0.00000000E+00  0.00000000E+00  0.00000000E+00
  0.00000000E+00  0.00000000E+00  0.00000000E+00
  0.00000000E+00  0.00000000E+00  0.00000000E+00
  0.00000000E+00  0.00000000E+00  0.00000000E+00
  0.00000000E+00  0.00000000E+00  0.00000000E+00
  0.00000000E+00  0.00000000E+00  0.00000000E+00
  0.00000000E+00  0.00000000E+00  0.00000000E+00
  0.00000000E+00  0.00000000E+00  0.00000000E+00
  0.00000000E+00  0.00000000E+00  0.00000000E+00
  0.00000000E+00  0.00000000E+00  0.00000000E+00
  0.00000000E+00  0.00000000E+00  0.00000000E+00
  0.00000000E+00  0.00000000E+00  0.00000000E+00
  0.00000000E+00  0.00000000E+00  0.00000000E+00
  0.00000000E+00  0.00000000E+00  0.00000000E+00
  0.00000000E+00  0.00000000E+00  0.00000000E+00
  0.00000000E+00  0.00000000E+00  0.00000000E+00
  0.00000000E+00  0.00000000E+00  0.00000000E+00
  0.00000000E+00  0.00000000E+00  0.00000000E+00
  0.00000000E+00  0.00000000E+00  0.00000000E+00
  0.00000000E+00  0.00000000E+00  0.00000000E+00
  0.00000000E+00  0.00000000E+00  0.00000000E+00
  0.00000000E+00  0.00000000E+00  0.00000000E+00
  0.00000000E+00  0.00000000E+00  0.00000000E+00
  0.00000000E+00  0.00000000E+00  0.00000000E+00
  0.00000000E+00  0.00000000E+00  0.00000000E+00
  0.00000000E+00  0.00000000E+00  0.00000000E+00
  0.00000000E+00  0.00000000E+00  0.00000000E+00
  0.00000000E+00  0.00000000E+00  0.00000000E+00
  0.00000000E+00  0.00000000E+00  0.00000000E+00
  0.00000000E+00  0.00000000E+00  0.00000000E+00
  0.00000000E+00  0.00000000E+00  0.00000000E+00
  0.00000000E+00  0.00000000E+00  0.00000000E+00
  0.00000000E+00  0.00000000E+00  0.00000000E+00
  0.00000000E+00  0.00000000E+00  0.00000000E+00
  0.00000000E+00  0.00000000E+00  0.00000000E+00
  0.00000000E+00  0.00000000E+00  0.00000000E+00
  0.00000000E+00  0.00000000E+00  0.00000000E+00
  0.00000000E+00  0.00000000E+00  0.00000000E+00
  0.00000000E+00  0.00000000E+00  0.00000000E+00
  0.00000000E+00  0.00000000E+00  0.00000000E+00
  0.00000000E+00  0.00000000E+00  0.00000000E+00
  0.00000000E+00  0.00000000E+00  0.00000000E+00
  0.00000000E+00  0.00000000E+00  0.00000000E+00
  0.00000000E+00  0.00000000E+00  0.00000000E+00
  0.00000000E+00  0.00000000E+00  0.00000000E+00
  0.00000000E+00  0.00000000E+00  0.00000000E+00
  0.00000000E+00  0.00000000E+00  0.00000000E+00
  0.00000000E+00  0.00000000E+00  0.00000000E+00
  0.00000000E+00  0.00000000E+00  0.00000000E+00
  0.00000000E+00  0.00000000E+00  0.00000000E+00
  0.00000000E+00  0.00000000E+00  0.00000000E+00
  0.00000000E+00  0.00000000E+00  0.00000000E+00
  0.00000000E+00  0.00000000E+00  0.00000000E+00
  0.00000000E+00  0.00000000E+00  0.00000000E+00
  0.00000000E+00  0.00000000E+00  0.00000000E+00
  0.00000000E+00  0.00000000E+00  0.00000000E+00
  0.00000000E+00  0.00000000E+00  0.00000000E+00
  0.00000000E+00  0.00000000E+00  0.00000000E+00
  0.00000000E+00  0.00000000E+00  0.00000000E+00
  0.00000000E+00  0.00000000E+00  0.00000000E+00
  0.00000000E+00  0.00000000E+00  0.00000000E+00
  0.00000000E+00  0.00000000E+00  0.00000000E+00
  0.00000000E+00  0.00000000E+00  0.00000000E+00
  0.00000000E+00  0.00000000E+00  0.00000000E+00
  0.00000000E+00  0.00000000E+00  0.00000000E+00
  0.00000000E+00  0.00000000E+00  0.00000000E+00
  0.00000000E+00  0.00000000E+00  0.00000000E+00
  0.00000000E+00  0.00000000E+00  0.00000000E+00
  0.00000000E+00  0.00000000E+00  0.00000000E+00
  0.00000000E+00  0.00000000E+00  0.00000000E+00
  0.00000000E+00  0.00000000E+00  0.00000000E+00
  0.00000000E+00  0.00000000E+00  0.00000000E+00
  0.00000000E+00  0.00000000E+00  0.00000000E+00
  0.00000000E+00  0.00000000E+00  0.00000000E+00
  0.00000000E+00  0.00000000E+00  0.00000000E+00
  0.00000000E+00  0.00000000E+00  0.00000000E+00
  0.00000000E+00  0.00000000E+00  0.00000000E+00
  0.00000000E+00  0.00000000E+00  0.00000000E+00
  0.00000000E+00  0.00000000E+00  0.00000000E+00
  0.00000000E+00  0.00000000E+00  0.00000000E+00
  0.00000000E+00  0.00000000E+00  0.00000000E+00
  0.00000000E+00  0.00000000E+00  0.00000000E+00
  0.00000000E+00  0.00000000E+00  0.00000000E+00
  0.00000000E+00  0.00000000E+00  0.00000000E+00
  0.00000000E+00  0.00000000E+00  0.00000000E+00
  0.00000000E+00  0.00000000E+00  0.00000000E+00
  0.00000000E+00  0.00000000E+00  0.00000000E+00
  0.00000000E+00  0.00000000E+00  0.00000000E+00
  0.00000000E+00  0.00000000E+00  0.00000000E+00
  0.00000000E+00  0.00000000E+00  0.00000000E+00
  0.00000000E+00  0.00000000E+00  0.00000000E+00
  0.00000000E+00  0.00000000E+00  0.00000000E+00
