C    H    F    O                        
    1.000000000000000     
    17.2710380553999983    0.0000000000000000    0.0000000000000000
    -8.6355190276999991   14.9571577057000002    0.0000000000000000
     0.0000000000000000    0.0000000000000000   15.0000000000000000
   C    H    F    O 
    88     8     2     1
Selective dynamics
Direct
  0.9999761245168506  0.9999645121902279  0.5007757964656839   T   T   T
  0.9994907733365939  0.1425185731859529  0.5000818439255276   T   T   T
  0.9992817565981712  0.2853460611818395  0.4984901246099896   T   T   T
  0.9994638941131216  0.4284144416679349  0.4968718488952776   T   T   T
  0.0000454075069072  0.5715172060272342  0.4968199662802215   T   T   T
  0.0011161194944833  0.7147962876483064  0.4983581797136379   T   T   T
  0.0010133273513573  0.8578607414710862  0.5004566700358036   T   T   T
  0.1432659651001355  0.0005418135400076  0.4999504246784909   T   T   T
  0.1428697024785912  0.1432172687594983  0.5025701687158820   T   T   T
  0.1416254530941509  0.2850753592500455  0.5043852194503674   T   T   T
  0.1415075403192105  0.4282568289401100  0.5019104256686406   T   T   T
  0.1425613748753971  0.5712893631726972  0.4982327725354123   T   T   T
  0.1431771565004414  0.7143795183760188  0.4965143477716488   T   T   T
  0.1433539392699515  0.8575464258146775  0.4971897358673677   T   T   T
  0.2857082551784169 -0.0000273814167263  0.4977649288249115   T   T   T
  0.2857790751679733  0.1428314932476501  0.5034724166087436   T   T   T
  0.2860021511055180  0.2867129186889029  0.5128070633591473   T   T   T
  0.2822829605116629  0.4282027454345921  0.5165663054632565   T   T   T
  0.2853061965012881  0.5703824606347294  0.5063761671984486   T   T   T
  0.2855397979060795  0.7145083625167775  0.4985609169289623   T   T   T
  0.2856785663170744  0.8574433538932126  0.4960597629258534   T   T   T
  0.4286641565435885  0.0000610662127932  0.4961885814692841   T   T   T
  0.4284708055227355  0.1423608451187600  0.4984143200421408   T   T   T
  0.4273365841445279  0.2821145515055584  0.5024453831193508   T   T   T
  0.4266651610746949  0.7159504756206323  0.4992433100389130   T   T   T
  0.4282832467483936  0.8573350103010831  0.4967087703978626   T   T   T
  0.5712880235458875  0.0003970986590845  0.4966218128440449   T   T   T
  0.5713827698592239  0.1426487716454620  0.4961909999654139   T   T   T
  0.5722731866076750  0.2859734250090995  0.4976684560938185   T   T   T
  0.5720217374396627  0.8581838684280084  0.4988000036397535   T   T   T
  0.7141884147078775  0.9999679246440338  0.4996419601873930   T   T   T
  0.7143295308446322  0.1428618544320026  0.4962279261974255   T   T   T
  0.7143163070987752  0.2856992808520670  0.4967149276890589   T   T   T
  0.7137959501729318  0.4277540624291927  0.5014587210177158   T   T   T
  0.7181888040582889  0.5731834044063192  0.5163393736667732   T   T   T
  0.7209928747386833  0.7164832033070805  0.5240201026686045   T   T   T
  0.7131238239697384  0.8571390612415873  0.5073738888398154   T   T   T
  0.8569959812281428  0.9999250473777465  0.5022667529212691   T   T   T
  0.8567484049728786  0.1426243133662710  0.4981362496095894   T   T   T
  0.8568080349588819  0.2854547582419115  0.4963237426536625   T   T   T
  0.8571900428710302  0.4285330705172480  0.4978197524316585   T   T   T
  0.8578331789428957  0.5718867574348588  0.5017377136290507   T   T   T
  0.8597791951911732  0.7154093328335561  0.5066280150701622   T   T   T
  0.8575132201096599  0.8569229512622705  0.5058290984100904   T   T   T
  0.0475747222979582  0.0953381573847680  0.5007897683243323   T   T   T
  0.0465246525845106  0.2374210539615062  0.5004701406055412   T   T   T
  0.0464179316019027  0.3804955535763968  0.4984143534953288   T   T   T
  0.0474779883356221  0.5237563020341925  0.4968446617182274   T   T   T
  0.0480551812862839  0.6668631761528873  0.4967959393411466   T   T   T
  0.0482650820321063  0.8099437383882953  0.4984766418840473   T   T   T
  0.0480502160407624  0.9527675253345558  0.5001328414139180   T   T   T
  0.1905599002644241  0.0953663398402121  0.5024113103285308   T   T   T
  0.1900272781011004  0.2383747919967131  0.5058899295604826   T   T   T
  0.1877637744889019  0.3798913659491120  0.5067174024174101   T   T   T
  0.1896901216277749  0.5234072856554086  0.5017619303787617   T   T   T
  0.1903509433136410  0.6667574047957606  0.4977794905799496   T   T   T
  0.1907368469367127  0.8098360872409203  0.4963206754571264   T   T   T
  0.1908024818326541  0.9526599200552586  0.4982466109664906   T   T   T
  0.3333646033099175  0.0953363673758194  0.4997277503568284   T   T   T
  0.3344260740969462  0.2381817381938040  0.5072908801090040   T   T   T
  0.3265298374376530  0.3788038549113213  0.5241070526251111   T   T   T
  0.3293272792942979  0.5221298248667818  0.5165492308783486   T   T   T
  0.3337529875912746  0.6675439987633791  0.5013750145417663   T   T   T
  0.3332342684812446  0.8096004915645475  0.4967176262266063   T   T   T
  0.3332180645115351  0.9524439866101050  0.4962993649160350   T   T   T
  0.4762714661859492  0.0949283325372679  0.4966830133221625   T   T   T
  0.4755259701564197  0.2371569811178639  0.4987788613375935   T   T   T
  0.4752807122472615  0.8093489108539275  0.4975727420960931   T   T   T
  0.4761744725875074  0.9526754959629528  0.4961992775905421   T   T   T
  0.6188889349697559  0.0952611765112017  0.4961127996770411   T   T   T
  0.6192752457371086  0.2379832789582789  0.4967264384194765   T   T   T
  0.6208824352637190  0.3793654419853088  0.4995069331618275   T   T   T
  0.6201982713948778  0.8132277864463147  0.5027181081852098   T   T   T
  0.6190870159177930  0.9529658198097740  0.4983447215574266   T   T   T
  0.7618358312744433  0.0953224441833633  0.4976693077313389   T   T   T
  0.7618727173021796  0.2378576230702006  0.4960340010827672   T   T   T
  0.7620101593795444  0.3807846172483838  0.4985889597226695   T   T   T
  0.7622194143019733  0.5249160339205133  0.5063235649861041   T   T   T
  0.7652497344489169  0.6671088911281899  0.5163894669379249   T   T   T
  0.7615345182331008  0.8085818947636053  0.5128180261195889   T   T   T
  0.7617844871817090  0.9524841459564595  0.5033893402939452   T   T   T
  0.9042834309467339  0.0947383394577195  0.4998264553062682   T   T   T
  0.9041960726331600  0.2377451735274522  0.4971599012395329   T   T   T
  0.9043530321787329  0.3809026215450641  0.4965714091830951   T   T   T
  0.9049631785290748  0.5239969505078945  0.4982393829756875   T   T   T
  0.9060258411428195  0.6670359215266605  0.5018556861705443   T   T   T
  0.9059124297117577  0.8102195094536752  0.5043184057863720   T   T   T
  0.9046819724640726  0.9520805981987007  0.5024632201926011   T   T   T
  0.4637458853382999  0.3541795484948660  0.5016684197336801   T   T   T
  0.4015751180315071  0.5555265554469153  0.5229004639948576   T   T   T
  0.6459225984920567  0.5398095092476638  0.5225445384739292   T   T   T
  0.5849264662546266  0.4159681615089500  0.4993030425858048   T   T   T
  0.5837358014443584  0.7411475477516538  0.5023304469128246   T   T   T
  0.4625938325916173  0.6793316671747807  0.4988156799142011   T   T   T
  0.5713299087070715  0.5878960595078270  0.3556983385221002   T   T   T
  0.4770635880628555  0.5052802367846562  0.3555730697408427   T   T   T
  0.4157541578784678  0.4292039825977610  0.5427276270412799   T   T   T
  0.6317700397106436  0.6660355902520574  0.5425843166686867   T   T   T
  0.5240076172372541  0.5467629888389688  0.3953361829999977   T   T   F
 
  0.00000000E+00  0.00000000E+00  0.00000000E+00
  0.00000000E+00  0.00000000E+00  0.00000000E+00
  0.00000000E+00  0.00000000E+00  0.00000000E+00
  0.00000000E+00  0.00000000E+00  0.00000000E+00
  0.00000000E+00  0.00000000E+00  0.00000000E+00
  0.00000000E+00  0.00000000E+00  0.00000000E+00
  0.00000000E+00  0.00000000E+00  0.00000000E+00
  0.00000000E+00  0.00000000E+00  0.00000000E+00
  0.00000000E+00  0.00000000E+00  0.00000000E+00
  0.00000000E+00  0.00000000E+00  0.00000000E+00
  0.00000000E+00  0.00000000E+00  0.00000000E+00
  0.00000000E+00  0.00000000E+00  0.00000000E+00
  0.00000000E+00  0.00000000E+00  0.00000000E+00
  0.00000000E+00  0.00000000E+00  0.00000000E+00
  0.00000000E+00  0.00000000E+00  0.00000000E+00
  0.00000000E+00  0.00000000E+00  0.00000000E+00
  0.00000000E+00  0.00000000E+00  0.00000000E+00
  0.00000000E+00  0.00000000E+00  0.00000000E+00
  0.00000000E+00  0.00000000E+00  0.00000000E+00
  0.00000000E+00  0.00000000E+00  0.00000000E+00
  0.00000000E+00  0.00000000E+00  0.00000000E+00
  0.00000000E+00  0.00000000E+00  0.00000000E+00
  0.00000000E+00  0.00000000E+00  0.00000000E+00
  0.00000000E+00  0.00000000E+00  0.00000000E+00
  0.00000000E+00  0.00000000E+00  0.00000000E+00
  0.00000000E+00  0.00000000E+00  0.00000000E+00
  0.00000000E+00  0.00000000E+00  0.00000000E+00
  0.00000000E+00  0.00000000E+00  0.00000000E+00
  0.00000000E+00  0.00000000E+00  0.00000000E+00
  0.00000000E+00  0.00000000E+00  0.00000000E+00
  0.00000000E+00  0.00000000E+00  0.00000000E+00
  0.00000000E+00  0.00000000E+00  0.00000000E+00
  0.00000000E+00  0.00000000E+00  0.00000000E+00
  0.00000000E+00  0.00000000E+00  0.00000000E+00
  0.00000000E+00  0.00000000E+00  0.00000000E+00
  0.00000000E+00  0.00000000E+00  0.00000000E+00
  0.00000000E+00  0.00000000E+00  0.00000000E+00
  0.00000000E+00  0.00000000E+00  0.00000000E+00
  0.00000000E+00  0.00000000E+00  0.00000000E+00
  0.00000000E+00  0.00000000E+00  0.00000000E+00
  0.00000000E+00  0.00000000E+00  0.00000000E+00
  0.00000000E+00  0.00000000E+00  0.00000000E+00
  0.00000000E+00  0.00000000E+00  0.00000000E+00
  0.00000000E+00  0.00000000E+00  0.00000000E+00
  0.00000000E+00  0.00000000E+00  0.00000000E+00
  0.00000000E+00  0.00000000E+00  0.00000000E+00
  0.00000000E+00  0.00000000E+00  0.00000000E+00
  0.00000000E+00  0.00000000E+00  0.00000000E+00
  0.00000000E+00  0.00000000E+00  0.00000000E+00
  0.00000000E+00  0.00000000E+00  0.00000000E+00
  0.00000000E+00  0.00000000E+00  0.00000000E+00
  0.00000000E+00  0.00000000E+00  0.00000000E+00
  0.00000000E+00  0.00000000E+00  0.00000000E+00
  0.00000000E+00  0.00000000E+00  0.00000000E+00
  0.00000000E+00  0.00000000E+00  0.00000000E+00
  0.00000000E+00  0.00000000E+00  0.00000000E+00
  0.00000000E+00  0.00000000E+00  0.00000000E+00
  0.00000000E+00  0.00000000E+00  0.00000000E+00
  0.00000000E+00  0.00000000E+00  0.00000000E+00
  0.00000000E+00  0.00000000E+00  0.00000000E+00
  0.00000000E+00  0.00000000E+00  0.00000000E+00
  0.00000000E+00  0.00000000E+00  0.00000000E+00
  0.00000000E+00  0.00000000E+00  0.00000000E+00
  0.00000000E+00  0.00000000E+00  0.00000000E+00
  0.00000000E+00  0.00000000E+00  0.00000000E+00
  0.00000000E+00  0.00000000E+00  0.00000000E+00
  0.00000000E+00  0.00000000E+00  0.00000000E+00
  0.00000000E+00  0.00000000E+00  0.00000000E+00
  0.00000000E+00  0.00000000E+00  0.00000000E+00
  0.00000000E+00  0.00000000E+00  0.00000000E+00
  0.00000000E+00  0.00000000E+00  0.00000000E+00
  0.00000000E+00  0.00000000E+00  0.00000000E+00
  0.00000000E+00  0.00000000E+00  0.00000000E+00
  0.00000000E+00  0.00000000E+00  0.00000000E+00
  0.00000000E+00  0.00000000E+00  0.00000000E+00
  0.00000000E+00  0.00000000E+00  0.00000000E+00
  0.00000000E+00  0.00000000E+00  0.00000000E+00
  0.00000000E+00  0.00000000E+00  0.00000000E+00
  0.00000000E+00  0.00000000E+00  0.00000000E+00
  0.00000000E+00  0.00000000E+00  0.00000000E+00
  0.00000000E+00  0.00000000E+00  0.00000000E+00
  0.00000000E+00  0.00000000E+00  0.00000000E+00
  0.00000000E+00  0.00000000E+00  0.00000000E+00
  0.00000000E+00  0.00000000E+00  0.00000000E+00
  0.00000000E+00  0.00000000E+00  0.00000000E+00
  0.00000000E+00  0.00000000E+00  0.00000000E+00
  0.00000000E+00  0.00000000E+00  0.00000000E+00
  0.00000000E+00  0.00000000E+00  0.00000000E+00
  0.00000000E+00  0.00000000E+00  0.00000000E+00
  0.00000000E+00  0.00000000E+00  0.00000000E+00
  0.00000000E+00  0.00000000E+00  0.00000000E+00
  0.00000000E+00  0.00000000E+00  0.00000000E+00
  0.00000000E+00  0.00000000E+00  0.00000000E+00
  0.00000000E+00  0.00000000E+00  0.00000000E+00
  0.00000000E+00  0.00000000E+00  0.00000000E+00
  0.00000000E+00  0.00000000E+00  0.00000000E+00
  0.00000000E+00  0.00000000E+00  0.00000000E+00
  0.00000000E+00  0.00000000E+00  0.00000000E+00
  0.00000000E+00  0.00000000E+00  0.00000000E+00
