C    H    F    O                        
   1.00000000000000     
    17.2710380553999983    0.0000000000000000    0.0000000000000000
    -8.6355190276999991   14.9571577057000002    0.0000000000000000
     0.0000000000000000    0.0000000000000000   15.0000000000000000
  C/253f7b50bb8d  H/030f79b5d3ab  F/53c630871ac6  O/818f92134a0a
              88               8               2               1
Selective dynamics
Direct
  0.9989629795666400 -0.0000814875476228  0.5015842013547197   T   T   T
  0.9984111054685434  0.1425356133137880  0.5026078244494436   T   T   T
  0.9984513474689348  0.2856591290070326  0.5037304259293636   T   T   T
  0.9990833055663242  0.4289555444794713  0.5033417031553736   T   T   T
  0.0000404468242776  0.5721175546345599  0.5022609762027240   T   T   T
  0.0009409426575634  0.7153168104555543  0.5006235704803073   T   T   T
  0.0005024705455705  0.8581676325737101  0.5003950721968069   T   T   T
  0.1424114634396756  0.0006294553633358  0.5069529383963451   T   T   T
  0.1412997108185384  0.1426502008534999  0.5067723343903634   T   T   T
  0.1403039945256136  0.2847406108588059  0.5083967530194309   T   T   T
  0.1408249796184719  0.4283973026960217  0.5090670499904970   T   T   T
  0.1424552698415578  0.5717678676747388  0.5077972401645148   T   T   T
  0.1429773571245945  0.7149684352352585  0.5078340828172735   T   T   T
  0.1429315214756959  0.8580088866447753  0.5072836050721992   T   T   T
  0.2852818629724446  0.0006326558508406  0.5080970470312047   T   T   T
  0.2847666680153942  0.1429812027492394  0.5082775780244413   T   T   T
  0.2837216345137892  0.2861544558606375  0.5135290498328906   T   T   T
  0.2810961348037144  0.4256858963271237  0.5204412371525637   T   T   T
  0.2852741314480987  0.5714173846746797  0.5158830504471864   T   T   T
  0.2853710172868886  0.7152640616570823  0.5103553044743744   T   T   T
  0.2853948455122342  0.8581778463225025  0.5087244711456201   T   T   T
  0.4282783472094425  0.0012776424869521  0.5061159365023638   T   T   T
  0.4280056670254914  0.1437230855743959  0.5045095300900432   T   T   T
  0.4258790260335888  0.2831755519509029  0.5044870203430434   T   T   T
  0.4268503285666360  0.7179068541177016  0.5055684041841840   T   T   T
  0.4280944111747788  0.8587670631710750  0.5059831987361676   T   T   T
  0.5709247155296535  0.0013466675828220  0.5021730954278646   T   T   T
  0.5709386431022346  0.1438093159096594  0.5018672855989701   T   T   T
  0.5718764679382278  0.2873298589661176  0.4948785095250779   T   T   T
  0.5717098301454692  0.8589356804424204  0.4970627695499967   T   T   T
  0.7136862091202157  0.0006039954165106  0.4964544881059128   T   T   T
  0.7137672450123581  0.1436331435231765  0.5004513058591045   T   T   T
  0.7138793568003236  0.2865759443567877  0.4964869020238342   T   T   T
  0.7141095479034135  0.4286887070627365  0.4828962190016474   T   T   T
  0.7219088416854843  0.5749664753237322  0.4561300058719969   T   T   T
  0.7238203878064514  0.7193364414613558  0.4555438639894172   T   T   T
  0.7128527057919857  0.8577352115738831  0.4837872706593647   T   T   T
  0.8562492655066148  0.0002522804025394  0.4948303288498339   T   T   T
  0.8560594902556238  0.1431139530109005  0.4998516260351282   T   T   T
  0.8562518926235876  0.2860872307538232  0.5002408324035758   T   T   T
  0.8570440112613807  0.4291856802135960  0.4955699700334154   T   T   T
  0.8584810362430607  0.5727009611879990  0.4886389177156291   T   T   T
  0.8602073069840377  0.7162973920161507  0.4836667287966710   T   T   T
  0.8573675049578792  0.8575446130129410  0.4886909294354781   T   T   T
  0.0462806718523579  0.0950796974095728  0.5037927057078491   T   T   T
  0.0453386563784193  0.2374123234343162  0.5047617633921976   T   T   T
  0.0458048862701272  0.3808927828957668  0.5052752762594359   T   T   T
  0.0473442851934376  0.5242706031916722  0.5046208734057063   T   T   T
  0.0478848171180528  0.6674227490851624  0.5041122521455464   T   T   T
  0.0479149211389606  0.8104097304181976  0.5033137313643944   T   T   T
  0.0472531467341761  0.9529149330946562  0.5035542841705880   T   T   T
  0.1895010626317052  0.0953482713750844  0.5078269495590106   T   T   T
  0.1882439209296709  0.2375443216934801  0.5092233371245306   T   T   T
  0.1865769168509490  0.3794529793694506  0.5117007336475995   T   T   T
  0.1892965677894649  0.5236304054110216  0.5102042091367518   T   T   T
  0.1902342514101984  0.6673860909968530  0.5093104626010442   T   T   T
  0.1904521094206178  0.8104203803593510  0.5085231770963290   T   T   T
  0.1902699910745937  0.9530904746168624  0.5079537106620994   T   T   T
  0.3328542861300463  0.0960068046591449  0.5071769031015347   T   T   T
  0.3328307111028852  0.2380863800379181  0.5091709818306706   T   T   T
  0.3276223782286391  0.3784153438338773  0.5220756620150758   T   T   T
  0.3251215409125877  0.5193725507420157  0.5257354130706606   T   T   T
  0.3339997469126901  0.6685277976903217  0.5115271039405547   T   T   T
  0.3330017731473323  0.8104778409623581  0.5085775843355920   T   T   T
  0.3328953067606437  0.9532737322956767  0.5078965164327477   T   T   T
  0.4757833912938936  0.0962562202561527  0.5041554299496294   T   T   T
  0.4749523662313534  0.2388874140582913  0.5011368053857698   T   T   T
  0.4751344165331481  0.8110421888195658  0.5028153954022897   T   T   T
  0.4758447950372479  0.9539549457123950  0.5048808199923319   T   T   T
  0.6184403547487570  0.0962791842733939  0.5017223742436395   T   T   T
  0.6187596783982888  0.2390752300594975  0.4978658175054440   T   T   T
  0.6208911065220033  0.3804757002044634  0.4854459129539967   T   T   T
  0.6198822213682732  0.8139196193552973  0.4890892288038875   T   T   T
  0.6186611968136865  0.9537787486902753  0.4984568202375007   T   T   T
  0.7612017308803565  0.0959326068095932  0.4992627120291571   T   T   T
  0.7613344445681581  0.2386591721564456  0.4994257892487554   T   T   T
  0.7619037008528753  0.3816278977063012  0.4916854038493481   T   T   T
  0.7637688416505257  0.5259667365657745  0.4752313811235547   T   T   T
  0.7672133627764094  0.6688277077363171  0.4634540930174517   T   T   T
  0.7620701959322850  0.8097848599792359  0.4755640062218480   T   T   T
  0.7612095227043125  0.9529691884289714  0.4912964235964226   T   T   T
  0.9033723312663448  0.0950151428460140  0.4992739811782622   T   T   T
  0.9034640428595070  0.2382283539519418  0.5014789885100936   T   T   T
  0.9039691592826583  0.3814696425484412  0.4999968935219835   T   T   T
  0.9051477467539775  0.5246977077466431  0.4962987977768829   T   T   T
  0.9062422399073444  0.6677953388820196  0.4914257429407252   T   T   T
  0.9057517255456571  0.8107670838016159  0.4913648928238921   T   T   T
  0.9039457234366393  0.9523332385069858  0.4958404814409126   T   T   T
  0.4615705465015784  0.3556413206395395  0.5028410943613641   T   T   T
  0.3997517845084050  0.4163949136846165  0.5280277530905435   T   T   T
  0.6513919943016012  0.5407780086639323  0.4399965059890267   T   T   T
  0.5851706094002196  0.4171237559428922  0.4811919055294523   T   T   T
  0.5833648722699502  0.7417500058600577  0.4873302577455692   T   T   T
  0.4636211378316686  0.6827610300352062  0.5028037284546241   T   T   T
  0.5545174092269320  0.5341497110024325  0.5560426737386652   T   T   T
  0.5146756921944514  0.5423433964169199  0.4677594374850053   T   T   T
  0.4153791204792487  0.5594880778592745  0.5418854549161666   T   T   T
  0.6364154469925720  0.6725456498451771  0.4272884065204159   T   T   T
  0.5300472907694573  0.5031004851784425  0.5000000455000511   T   T   T
 
             NaN             NaN             NaN
             NaN             NaN             NaN
             NaN             NaN             NaN
             NaN             NaN             NaN
             NaN             NaN             NaN
             NaN             NaN             NaN
             NaN             NaN             NaN
             NaN             NaN             NaN
             NaN             NaN             NaN
             NaN             NaN             NaN
             NaN             NaN             NaN
             NaN             NaN             NaN
             NaN             NaN             NaN
             NaN             NaN             NaN
             NaN             NaN             NaN
             NaN             NaN             NaN
             NaN             NaN             NaN
             NaN             NaN             NaN
             NaN             NaN             NaN
             NaN             NaN             NaN
             NaN             NaN             NaN
             NaN             NaN             NaN
             NaN             NaN             NaN
             NaN             NaN             NaN
             NaN             NaN             NaN
             NaN             NaN             NaN
             NaN             NaN             NaN
             NaN             NaN             NaN
             NaN             NaN             NaN
             NaN             NaN             NaN
             NaN             NaN             NaN
             NaN             NaN             NaN
             NaN             NaN             NaN
             NaN             NaN             NaN
             NaN             NaN             NaN
             NaN             NaN             NaN
             NaN             NaN             NaN
             NaN             NaN             NaN
             NaN             NaN             NaN
             NaN             NaN             NaN
             NaN             NaN             NaN
             NaN             NaN             NaN
             NaN             NaN             NaN
             NaN             NaN             NaN
             NaN             NaN             NaN
             NaN             NaN             NaN
             NaN             NaN             NaN
             NaN             NaN             NaN
             NaN             NaN             NaN
             NaN             NaN             NaN
             NaN             NaN             NaN
             NaN             NaN             NaN
             NaN             NaN             NaN
             NaN             NaN             NaN
             NaN             NaN             NaN
             NaN             NaN             NaN
             NaN             NaN             NaN
             NaN             NaN             NaN
             NaN             NaN             NaN
             NaN             NaN             NaN
             NaN             NaN             NaN
             NaN             NaN             NaN
             NaN             NaN             NaN
             NaN             NaN             NaN
             NaN             NaN             NaN
             NaN             NaN             NaN
             NaN             NaN             NaN
             NaN             NaN             NaN
             NaN             NaN             NaN
             NaN             NaN             NaN
             NaN             NaN             NaN
             NaN             NaN             NaN
             NaN             NaN             NaN
             NaN             NaN             NaN
             NaN             NaN             NaN
             NaN             NaN             NaN
             NaN             NaN             NaN
             NaN             NaN             NaN
             NaN             NaN             NaN
             NaN             NaN             NaN
             NaN             NaN             NaN
             NaN             NaN             NaN
             NaN             NaN             NaN
             NaN             NaN             NaN
             NaN             NaN             NaN
             NaN             NaN             NaN
             NaN             NaN             NaN
             NaN             NaN             NaN
             NaN             NaN             NaN
             NaN             NaN             NaN
             NaN             NaN             NaN
             NaN             NaN             NaN
             NaN             NaN             NaN
             NaN             NaN             NaN
             NaN             NaN             NaN
             NaN             NaN             NaN
             NaN             NaN             NaN
             NaN             NaN             NaN
             NaN             NaN             NaN
