C4                                      
    1.000000000000000     
    17.2710380553999983    0.0000000000000000    0.0000000000000000
    -8.6355190276999991   14.9571577057000002    0.0000000000000000
     0.0000000000000000    0.0000000000000000   15.0000000000000000
   C    F    N 
    86     6     2
Direct
  0.0034373866687307  0.0026795849315680  0.2499998458914334
  0.0001775252439780  0.1431969355512115  0.2499984506970941
 -0.0027292976286297  0.2841880922350034  0.2499989049915896
 -0.0032437099835234  0.4274462636602391  0.2500000452286979
 -0.0023625395593600  0.5714512933354876  0.2499998466037849
  0.0018689445151478  0.7154951037919630  0.2499997842103050
  0.0049857785628381  0.8603487065745676  0.2500001440135165
  0.1448607432442398  0.0009588569595217  0.2499999232966736
  0.1447811508319388  0.1453061892519312  0.2499994867734924
  0.1401972699051492  0.2849066995198853  0.2499997481239757
  0.1363374689627927  0.4264806996503872  0.2500008733696847
  0.1384802894514431  0.5699804500399897  0.2500001089089496
  0.1421117607375590  0.7138439225898698  0.2499998659450987
  0.1447729444274463  0.8575017097314748  0.2499999525655004
  0.2865134237050958 -0.0013061208611833  0.2500004498462133
  0.2844522812897786  0.1407758009112612  0.2499956404744300
  0.2883501572515894  0.2912782088800568  0.2499992796125280
  0.2758009211454979  0.4296321196899480  0.2500011763456868
  0.2785181486237733  0.5651268007348350  0.2500003544922411
  0.2823421556214618  0.7117958467086585  0.2500004277178268
  0.2859704445328652  0.8556294840756622  0.2500000371390792
  0.4289361058585752 -0.0029915497171936  0.2500004776457916
  0.4282996147619150  0.1396130672046040  0.2499979272939435
  0.4218445810435449  0.2737682090858677  0.2500030866251466
  0.4202142275718843  0.7099373153927696  0.2500003822031728
  0.4280315576401001  0.8530680371798225  0.2500009803670979
  0.5713464398882042 -0.0035333811584701  0.2500002520325174
  0.5713181581530398  0.1396206842061953  0.2500008158488800
  0.5720274711279252  0.2827594194186484  0.2500006728836696
  0.5724263968198008  0.8528832094262273  0.2499989010216134
  0.7148429346236269 -0.0018066785359870  0.2500001006849651
  0.7138231245334676  0.1406556948372174  0.2499998047001618
  0.7141631653449045  0.2841381182277072  0.2499998841703694
  0.7172433346705772  0.4283406123548146  0.2500007058808531
  0.7201822879086660  0.5829881880944158  0.2500008982597030
  0.7200760991031800  0.8591896279946610  0.2500016620077138
  0.8597891153842009  0.0015056907290024  0.2499999211232847
  0.8564532123490143  0.1417632573216054  0.2499993101851487
  0.8555225575358174  0.2842119749628677  0.2499999152290228
  0.8568654279231575  0.4283521903296613  0.2500006189501225
  0.8559243668494716  0.5733179611211965  0.2500000535970989
  0.8646972651959669  0.7200567209235643  0.2499998915693640
  0.8638369203492635  0.8612492763748005  0.2499998022458592
  0.0497654436896984  0.0975664452729993  0.2499994897419334
  0.0456056503015592  0.2372756203497766  0.2499981947845817
  0.0425390884398412  0.3788973385249838  0.2499996483910576
  0.0439045057908227  0.5227542472865480  0.2500002509809089
  0.0473195426619077  0.6667514494877381  0.2499996424022964
  0.0502347114058809  0.8107860529910277  0.2499999399457569
  0.0507307779537975  0.9546705304647538  0.2500002188461459
  0.1905563226392169  0.0952255798920784  0.2499986038211383
  0.1914676826223637  0.2409474817884047  0.2499991659832718
  0.1827807582950808  0.3788570999383554  0.2500005768859451
  0.1837301495635275  0.5209517764256480  0.2500003590809105
  0.1876170749896875  0.6652348731016366  0.2499998895560840
  0.1911391460628485  0.8090451201245918  0.2499999185238904
  0.1919066937284531  0.9523996532248004  0.2500001589918596
  0.3333034002200927  0.0936568658347742  0.2499978331133434
  0.3303989583186234  0.2349296842654149  0.2499966815616068
  0.3270998950355437  0.3862377349328707  0.2500002831463387
  0.3274285592738486  0.6626769057905142  0.2500019760845495
  0.3325558203052849  0.8069128983871952  0.2500000642324083
  0.3337410260082741  0.9505393759356840  0.2500003038180617
  0.4762877202736852  0.0920739544059141  0.2499990492404697
  0.4755119787931480  0.2344571435244990  0.2499996735806674
  0.4750302215437642  0.8041237291120598  0.2500007849571765
  0.4761812145267565  0.9487963071621527  0.2500003793877679
  0.6186393093243882  0.0919095242856901  0.2500001496183011
  0.6192009727903228  0.2351405715667589  0.2500005781966662
  0.6258199284293879  0.3757526466494535  0.2500009213921582
  0.6272653373581814  0.8136578011950665  0.2499969545484393
  0.6193919739103438  0.9488565013930645  0.2500001604970133
  0.7615743165809754  0.0934955437982107  0.2499996694617740
  0.7609523341829261  0.2360106805093191  0.2500002743219011
  0.7630447161472792  0.3800453314499342  0.2500010807502936
  0.7590600431784571  0.5268090263270823  0.2500004419140113
  0.7716287192302300  0.6777578361279930  0.2499995679307726
  0.7690411565040526  0.8106164830298722  0.2499997011310305
  0.7650626385591447  0.9533581254625147  0.2500003607718781
  0.9054051772434575  0.0955409183177199  0.2499990320501080
  0.9027968773422318  0.2365629448378368  0.2499992452551891
  0.9026142657272289  0.3797692289008013  0.2500002061754181
  0.9025768012019747  0.5242528670284532  0.2500000649774296
  0.9072227968472030  0.6685650136223216  0.2499999640740087
  0.9112101543367781  0.8141567563831988  0.2499999456795265
  0.9089432624615233  0.9554291764161055  0.2499997431302333
  0.4572976570547764  0.3606934398331428  0.2500388243191582
  0.4133833263222851  0.4518087265796942  0.2500012401940488
  0.6338398503545213  0.5624024277049684  0.2500027377549754
  0.5908355525998200  0.4275646172893282  0.2499967759548872
  0.5932171419097558  0.7261025035396756  0.2499913269444896
  0.4544244907623349  0.6564547794624562  0.2499758105353475
  0.7261882052716636  0.7220284428349373  0.2500002651857331
  0.3213256112887464  0.5193542094065088  0.2500014594037336
 
  0.00000000E+00  0.00000000E+00  0.00000000E+00
  0.00000000E+00  0.00000000E+00  0.00000000E+00
  0.00000000E+00  0.00000000E+00  0.00000000E+00
  0.00000000E+00  0.00000000E+00  0.00000000E+00
  0.00000000E+00  0.00000000E+00  0.00000000E+00
  0.00000000E+00  0.00000000E+00  0.00000000E+00
  0.00000000E+00  0.00000000E+00  0.00000000E+00
  0.00000000E+00  0.00000000E+00  0.00000000E+00
  0.00000000E+00  0.00000000E+00  0.00000000E+00
  0.00000000E+00  0.00000000E+00  0.00000000E+00
  0.00000000E+00  0.00000000E+00  0.00000000E+00
  0.00000000E+00  0.00000000E+00  0.00000000E+00
  0.00000000E+00  0.00000000E+00  0.00000000E+00
  0.00000000E+00  0.00000000E+00  0.00000000E+00
  0.00000000E+00  0.00000000E+00  0.00000000E+00
  0.00000000E+00  0.00000000E+00  0.00000000E+00
  0.00000000E+00  0.00000000E+00  0.00000000E+00
  0.00000000E+00  0.00000000E+00  0.00000000E+00
  0.00000000E+00  0.00000000E+00  0.00000000E+00
  0.00000000E+00  0.00000000E+00  0.00000000E+00
  0.00000000E+00  0.00000000E+00  0.00000000E+00
  0.00000000E+00  0.00000000E+00  0.00000000E+00
  0.00000000E+00  0.00000000E+00  0.00000000E+00
  0.00000000E+00  0.00000000E+00  0.00000000E+00
  0.00000000E+00  0.00000000E+00  0.00000000E+00
  0.00000000E+00  0.00000000E+00  0.00000000E+00
  0.00000000E+00  0.00000000E+00  0.00000000E+00
  0.00000000E+00  0.00000000E+00  0.00000000E+00
  0.00000000E+00  0.00000000E+00  0.00000000E+00
  0.00000000E+00  0.00000000E+00  0.00000000E+00
  0.00000000E+00  0.00000000E+00  0.00000000E+00
  0.00000000E+00  0.00000000E+00  0.00000000E+00
  0.00000000E+00  0.00000000E+00  0.00000000E+00
  0.00000000E+00  0.00000000E+00  0.00000000E+00
  0.00000000E+00  0.00000000E+00  0.00000000E+00
  0.00000000E+00  0.00000000E+00  0.00000000E+00
  0.00000000E+00  0.00000000E+00  0.00000000E+00
  0.00000000E+00  0.00000000E+00  0.00000000E+00
  0.00000000E+00  0.00000000E+00  0.00000000E+00
  0.00000000E+00  0.00000000E+00  0.00000000E+00
  0.00000000E+00  0.00000000E+00  0.00000000E+00
  0.00000000E+00  0.00000000E+00  0.00000000E+00
  0.00000000E+00  0.00000000E+00  0.00000000E+00
  0.00000000E+00  0.00000000E+00  0.00000000E+00
  0.00000000E+00  0.00000000E+00  0.00000000E+00
  0.00000000E+00  0.00000000E+00  0.00000000E+00
  0.00000000E+00  0.00000000E+00  0.00000000E+00
  0.00000000E+00  0.00000000E+00  0.00000000E+00
  0.00000000E+00  0.00000000E+00  0.00000000E+00
  0.00000000E+00  0.00000000E+00  0.00000000E+00
  0.00000000E+00  0.00000000E+00  0.00000000E+00
  0.00000000E+00  0.00000000E+00  0.00000000E+00
  0.00000000E+00  0.00000000E+00  0.00000000E+00
  0.00000000E+00  0.00000000E+00  0.00000000E+00
  0.00000000E+00  0.00000000E+00  0.00000000E+00
  0.00000000E+00  0.00000000E+00  0.00000000E+00
  0.00000000E+00  0.00000000E+00  0.00000000E+00
  0.00000000E+00  0.00000000E+00  0.00000000E+00
  0.00000000E+00  0.00000000E+00  0.00000000E+00
  0.00000000E+00  0.00000000E+00  0.00000000E+00
  0.00000000E+00  0.00000000E+00  0.00000000E+00
  0.00000000E+00  0.00000000E+00  0.00000000E+00
  0.00000000E+00  0.00000000E+00  0.00000000E+00
  0.00000000E+00  0.00000000E+00  0.00000000E+00
  0.00000000E+00  0.00000000E+00  0.00000000E+00
  0.00000000E+00  0.00000000E+00  0.00000000E+00
  0.00000000E+00  0.00000000E+00  0.00000000E+00
  0.00000000E+00  0.00000000E+00  0.00000000E+00
  0.00000000E+00  0.00000000E+00  0.00000000E+00
  0.00000000E+00  0.00000000E+00  0.00000000E+00
  0.00000000E+00  0.00000000E+00  0.00000000E+00
  0.00000000E+00  0.00000000E+00  0.00000000E+00
  0.00000000E+00  0.00000000E+00  0.00000000E+00
  0.00000000E+00  0.00000000E+00  0.00000000E+00
  0.00000000E+00  0.00000000E+00  0.00000000E+00
  0.00000000E+00  0.00000000E+00  0.00000000E+00
  0.00000000E+00  0.00000000E+00  0.00000000E+00
  0.00000000E+00  0.00000000E+00  0.00000000E+00
  0.00000000E+00  0.00000000E+00  0.00000000E+00
  0.00000000E+00  0.00000000E+00  0.00000000E+00
  0.00000000E+00  0.00000000E+00  0.00000000E+00
  0.00000000E+00  0.00000000E+00  0.00000000E+00
  0.00000000E+00  0.00000000E+00  0.00000000E+00
  0.00000000E+00  0.00000000E+00  0.00000000E+00
  0.00000000E+00  0.00000000E+00  0.00000000E+00
  0.00000000E+00  0.00000000E+00  0.00000000E+00
  0.00000000E+00  0.00000000E+00  0.00000000E+00
  0.00000000E+00  0.00000000E+00  0.00000000E+00
  0.00000000E+00  0.00000000E+00  0.00000000E+00
  0.00000000E+00  0.00000000E+00  0.00000000E+00
  0.00000000E+00  0.00000000E+00  0.00000000E+00
  0.00000000E+00  0.00000000E+00  0.00000000E+00
  0.00000000E+00  0.00000000E+00  0.00000000E+00
  0.00000000E+00  0.00000000E+00  0.00000000E+00
