C4                                      
    1.000000000000000     
    17.2710380553999983    0.0000000000000000    0.0000000000000000
    -8.6355190276999991   14.9571577057000002    0.0000000000000000
     0.0000000000000000    0.0000000000000000   15.0000000000000000
   C    H    N 
    86     6     2
Direct
 -0.0006818208749002 -0.0001691776766946  0.2499999867790525
 -0.0004565034245105  0.1428743086875986  0.2499999896097719
 -0.0000148507249747  0.2859954770462387  0.2499999694719371
  0.0002047921072244  0.4288598707469327  0.2499999776135864
  0.0002531831230987  0.5716770324456966  0.2499999857714572
  0.0004619368106762  0.7146736942262856  0.2499999651138768
 -0.0001371763698276  0.8574401022001445  0.2499999606700744
  0.1426931119336392  0.0001543094796409  0.2499999871653460
  0.1426101954448868  0.1431746042771388  0.2499999896179325
  0.1425549454840898  0.2859711144856988  0.2499999673079001
  0.1433071346803384  0.4294834727076423  0.2499999746746932
  0.1436541894350072  0.5718314574685156  0.2499999993614302
  0.1434211114297346  0.7144505152163385  0.2499999874126236
  0.1429050136857161  0.8572389178465889  0.2499999812752577
  0.2854746259368869 -0.0003560982527989  0.2500000187288751
  0.2854036904973579  0.1424938869360743  0.2500000050828840
  0.2860520829545454  0.2873740868942740  0.2499999962376210
  0.2854018761500753  0.4291603643977650  0.2499999778726078
  0.2883578935896608  0.5724289139570522  0.2499999970531332
  0.2867668264233516  0.7151944622202976  0.2500000206856732
  0.2858253632951814  0.8573565632192949  0.2500000350544879
  0.4286716563813833 -0.0006932431801520  0.2500000541073799
  0.4283193935598608  0.1419300440852397  0.2500000052125507
  0.4267413518258381  0.2816285561082321  0.2500000199262747
  0.4290519012629513  0.8561574867694122  0.2500000535540758
  0.5711488321233380 -0.0009926442337653  0.2500000560832414
  0.5713536681558543  0.1419369711880875  0.2500000188676488
  0.5721821927841314  0.2853109672277410  0.2500000076336349
  0.5732544535581880  0.8547413968277995  0.2500000204742562
  0.7135234262586555 -0.0004016608267554  0.2500000285296122
  0.7142107676940902  0.1426644936959716  0.2500000298451974
  0.7143050993996314  0.2854930952850461  0.2499999997465642
  0.7136465844163975  0.4275867261998600  0.2500000135778932
  0.7169336339892167  0.5733951595633588  0.2500000035082040
  0.7151724636154733  0.7151136317022317  0.2499999805729652
  0.7095838861659112  0.8565102499688237  0.2499999910808718
  0.8561988059518654 -0.0003393666928722  0.2500000033198442
  0.8567752802538381  0.1427678692354655  0.2500000084341724
  0.8570153099132140  0.2856492560614921  0.2499999933138449
  0.8572762651568770  0.4286071138042799  0.2499999856240572
  0.8573204170784325  0.5719570156870660  0.2499999832379037
  0.8577725883171582  0.7150992795150736  0.2499999789225035
  0.8556630261131610  0.8568177643354440  0.2499999813723658
  0.0472821056916873  0.0953132821026032  0.2499999904091543
  0.0471111649093718  0.2380282951413301  0.2499999719661851
  0.0476948545115505  0.3814031039442075  0.2499999680857228
  0.0481908853257949  0.5242121763253276  0.2499999879305795
  0.0480092524678096  0.6670311135428402  0.2499999786107195
  0.0475721391311135  0.8097776491694069  0.2499999621286519
  0.0472941346321118  0.9524119691138617  0.2499999742272903
  0.1900965534010770  0.0950699752357813  0.2499999965292475
  0.1901715062261602  0.2385017207217421  0.2499999816157114
  0.1897950162944467  0.3811528316094003  0.2499999679484176
  0.1918476680542406  0.5248992930122367  0.2499999941945945
  0.1912205265236348  0.6671861632576113  0.2500000056314775
  0.1907408664538459  0.8097661585678563  0.2499999969604913
  0.1903989381796345  0.9523252157683023  0.2499999963941072
  0.3331479392456064  0.0950103593351490  0.2500000080479616
  0.3338509328118315  0.2378078652392301  0.2500000111074873
  0.3306457915725221  0.3803132174041087  0.2499999928813053
  0.3324398828542464  0.5237168284617300  0.2499999869346066
  0.3378576500095240  0.6706843154983307  0.2500000095922690
  0.3339026162292314  0.8098808065685807  0.2500000411071349
  0.3332291083434740  0.9521970268042323  0.2500000427512413
  0.4761570743041211  0.0943215957932881  0.2500000228801774
  0.4754349393642030  0.2369869527776691  0.2500000092357860
  0.4742172637754989  0.8052045382501460  0.2500000294460840
  0.4762749750108674  0.9515777688491565  0.2500000623399568
  0.6187468753294629  0.0943270754550622  0.2500000435010399
  0.6191933583868012  0.2373012714552895  0.2500000005054680
  0.6208154655712413  0.3785917648386322  0.2500000217145102
  0.6183367354439753  0.9507933198219831  0.2500000394056067
  0.7616480086453472  0.0952385149184612  0.2500000276694183
  0.7619083955054018  0.2378482222825429  0.2500000080959916
  0.7620387283067512  0.3807112374339389  0.2499999990365031
  0.7614177780110941  0.5248915025002603  0.2500000034727984
  0.7621447636376841  0.6675019222438180  0.2499999868404040
  0.7591949830194256  0.8078656751964917  0.2499999828841593
  0.7606619829560377  0.9520596929693382  0.2500000074856467
  0.9040988992052272  0.0947468303865094  0.2500000035020434
  0.9045963066368891  0.2381099192116500  0.2499999899605002
  0.9047837901033839  0.3811997841360217  0.2499999820317627
  0.9049049347986899  0.5242181218114552  0.2499999823472484
  0.9049763335526102  0.6671227426282665  0.2499999712663937
  0.9042455055588974  0.8099485836585234  0.2499999715065934
  0.9038321457900059  0.9519334144704380  0.2499999905461405
  0.4630158808161316  0.3541250369956218  0.2500000130118469
  0.4033988247469354  0.4189579360343685  0.2499999983206455
  0.4053882458475557  0.5604195452120216  0.2499999893142658
  0.6422197851996720  0.6788245546581294  0.2499999830529151
  0.6441783751585469  0.5392986326395254  0.2500000033791143
  0.5845627699029754  0.4148254664311631  0.2500000156511715
  0.4279006013015809  0.7148880559158509  0.2500000103561301
  0.6195496873133287  0.8107011992715667  0.2499999966800372
 
  0.00000000E+00  0.00000000E+00  0.00000000E+00
  0.00000000E+00  0.00000000E+00  0.00000000E+00
  0.00000000E+00  0.00000000E+00  0.00000000E+00
  0.00000000E+00  0.00000000E+00  0.00000000E+00
  0.00000000E+00  0.00000000E+00  0.00000000E+00
  0.00000000E+00  0.00000000E+00  0.00000000E+00
  0.00000000E+00  0.00000000E+00  0.00000000E+00
  0.00000000E+00  0.00000000E+00  0.00000000E+00
  0.00000000E+00  0.00000000E+00  0.00000000E+00
  0.00000000E+00  0.00000000E+00  0.00000000E+00
  0.00000000E+00  0.00000000E+00  0.00000000E+00
  0.00000000E+00  0.00000000E+00  0.00000000E+00
  0.00000000E+00  0.00000000E+00  0.00000000E+00
  0.00000000E+00  0.00000000E+00  0.00000000E+00
  0.00000000E+00  0.00000000E+00  0.00000000E+00
  0.00000000E+00  0.00000000E+00  0.00000000E+00
  0.00000000E+00  0.00000000E+00  0.00000000E+00
  0.00000000E+00  0.00000000E+00  0.00000000E+00
  0.00000000E+00  0.00000000E+00  0.00000000E+00
  0.00000000E+00  0.00000000E+00  0.00000000E+00
  0.00000000E+00  0.00000000E+00  0.00000000E+00
  0.00000000E+00  0.00000000E+00  0.00000000E+00
  0.00000000E+00  0.00000000E+00  0.00000000E+00
  0.00000000E+00  0.00000000E+00  0.00000000E+00
  0.00000000E+00  0.00000000E+00  0.00000000E+00
  0.00000000E+00  0.00000000E+00  0.00000000E+00
  0.00000000E+00  0.00000000E+00  0.00000000E+00
  0.00000000E+00  0.00000000E+00  0.00000000E+00
  0.00000000E+00  0.00000000E+00  0.00000000E+00
  0.00000000E+00  0.00000000E+00  0.00000000E+00
  0.00000000E+00  0.00000000E+00  0.00000000E+00
  0.00000000E+00  0.00000000E+00  0.00000000E+00
  0.00000000E+00  0.00000000E+00  0.00000000E+00
  0.00000000E+00  0.00000000E+00  0.00000000E+00
  0.00000000E+00  0.00000000E+00  0.00000000E+00
  0.00000000E+00  0.00000000E+00  0.00000000E+00
  0.00000000E+00  0.00000000E+00  0.00000000E+00
  0.00000000E+00  0.00000000E+00  0.00000000E+00
  0.00000000E+00  0.00000000E+00  0.00000000E+00
  0.00000000E+00  0.00000000E+00  0.00000000E+00
  0.00000000E+00  0.00000000E+00  0.00000000E+00
  0.00000000E+00  0.00000000E+00  0.00000000E+00
  0.00000000E+00  0.00000000E+00  0.00000000E+00
  0.00000000E+00  0.00000000E+00  0.00000000E+00
  0.00000000E+00  0.00000000E+00  0.00000000E+00
  0.00000000E+00  0.00000000E+00  0.00000000E+00
  0.00000000E+00  0.00000000E+00  0.00000000E+00
  0.00000000E+00  0.00000000E+00  0.00000000E+00
  0.00000000E+00  0.00000000E+00  0.00000000E+00
  0.00000000E+00  0.00000000E+00  0.00000000E+00
  0.00000000E+00  0.00000000E+00  0.00000000E+00
  0.00000000E+00  0.00000000E+00  0.00000000E+00
  0.00000000E+00  0.00000000E+00  0.00000000E+00
  0.00000000E+00  0.00000000E+00  0.00000000E+00
  0.00000000E+00  0.00000000E+00  0.00000000E+00
  0.00000000E+00  0.00000000E+00  0.00000000E+00
  0.00000000E+00  0.00000000E+00  0.00000000E+00
  0.00000000E+00  0.00000000E+00  0.00000000E+00
  0.00000000E+00  0.00000000E+00  0.00000000E+00
  0.00000000E+00  0.00000000E+00  0.00000000E+00
  0.00000000E+00  0.00000000E+00  0.00000000E+00
  0.00000000E+00  0.00000000E+00  0.00000000E+00
  0.00000000E+00  0.00000000E+00  0.00000000E+00
  0.00000000E+00  0.00000000E+00  0.00000000E+00
  0.00000000E+00  0.00000000E+00  0.00000000E+00
  0.00000000E+00  0.00000000E+00  0.00000000E+00
  0.00000000E+00  0.00000000E+00  0.00000000E+00
  0.00000000E+00  0.00000000E+00  0.00000000E+00
  0.00000000E+00  0.00000000E+00  0.00000000E+00
  0.00000000E+00  0.00000000E+00  0.00000000E+00
  0.00000000E+00  0.00000000E+00  0.00000000E+00
  0.00000000E+00  0.00000000E+00  0.00000000E+00
  0.00000000E+00  0.00000000E+00  0.00000000E+00
  0.00000000E+00  0.00000000E+00  0.00000000E+00
  0.00000000E+00  0.00000000E+00  0.00000000E+00
  0.00000000E+00  0.00000000E+00  0.00000000E+00
  0.00000000E+00  0.00000000E+00  0.00000000E+00
  0.00000000E+00  0.00000000E+00  0.00000000E+00
  0.00000000E+00  0.00000000E+00  0.00000000E+00
  0.00000000E+00  0.00000000E+00  0.00000000E+00
  0.00000000E+00  0.00000000E+00  0.00000000E+00
  0.00000000E+00  0.00000000E+00  0.00000000E+00
  0.00000000E+00  0.00000000E+00  0.00000000E+00
  0.00000000E+00  0.00000000E+00  0.00000000E+00
  0.00000000E+00  0.00000000E+00  0.00000000E+00
  0.00000000E+00  0.00000000E+00  0.00000000E+00
  0.00000000E+00  0.00000000E+00  0.00000000E+00
  0.00000000E+00  0.00000000E+00  0.00000000E+00
  0.00000000E+00  0.00000000E+00  0.00000000E+00
  0.00000000E+00  0.00000000E+00  0.00000000E+00
  0.00000000E+00  0.00000000E+00  0.00000000E+00
  0.00000000E+00  0.00000000E+00  0.00000000E+00
  0.00000000E+00  0.00000000E+00  0.00000000E+00
  0.00000000E+00  0.00000000E+00  0.00000000E+00
