C4                                      
    1.000000000000000     
    17.2710380553999983    0.0000000000000000    0.0000000000000000
    -8.6355190276999991   14.9571577057000002    0.0000000000000000
     0.0000000000000000    0.0000000000000000   15.0000000000000000
   C    F    N 
    86     6     2
Direct
  0.0003143513616964  0.0008579793890958  0.2500007795093159
  0.0002008909714690  0.1433867690651490  0.2499997716459381
  0.0003030080193743  0.2861087490382232  0.2499997857542558
  0.0002013352408866  0.4289452255230375  0.2499997594726902
 -0.0005999838120976  0.5717808589586673  0.2499996151677099
  0.0000630340739380  0.7145876045434827  0.2499996954652657
  0.0002956086648784  0.8579878033417954  0.2499997721117068
  0.1419454194577632 -0.0009691615431469  0.2499998375465528
  0.1434325103286011  0.1438140401009095  0.2499997816050929
  0.1427074312453610  0.2862951352531793  0.2499998772179435
  0.1419993865248334  0.4299115846816686  0.2499998479820970
  0.1423759098326492  0.5721873481467095  0.2499998132025839
  0.1425664555231635  0.7143570640383073  0.2499997499633113
  0.1422755121777872  0.8566254169411723  0.2499997924777312
  0.2846061575365068 -0.0023158310180514  0.2499998134588231
  0.2827442572617202  0.1382724247278013  0.2499985020746265
  0.2880874049847861  0.2880775815819157  0.2499997751806132
  0.2820755086969989  0.4295050565880602  0.2500001863478340
  0.2860782699850594  0.5741529276870365  0.2499998065087121
  0.2857051854751089  0.7155319470634216  0.2500000233074107
  0.2850130116590027  0.8565872157780510  0.2499998793882418
  0.4281555644596090 -0.0023753992004892  0.2499998409479262
  0.4273361640119624  0.1379066318652083  0.2499987207290452
  0.4210408074720149  0.2700072825487126  0.2500020896312203
  0.4285511860159205  0.8561623329350897  0.2499999231411670
  0.5711976635203950 -0.0015629127001725  0.2499998447297501
  0.5715106139838383  0.1396285751225142  0.2500008881510434
  0.5721442722506740  0.2805093697767291  0.2500005210547018
  0.5733739094577402  0.8558505628658867  0.2499998145298062
  0.7140447388100926  0.0000464288872968  0.2499998692650564
  0.7147912195681061  0.1419355257887187  0.2499998247796466
  0.7154673278403673  0.2838402635470895  0.2499997974480606
  0.7178750858241106  0.4260251269730047  0.2500007126079392
  0.7192046442072368  0.5775587461655118  0.2499992523576031
  0.7185408249948536  0.7193481113615335  0.2500002548367830
  0.7101850572260572  0.8582929016446350  0.2499998029360899
  0.8570620133172084  0.0006220214920441  0.2499998025671003
  0.8574035413052599  0.1428544897446761  0.2499998516749286
  0.8577769021699739  0.2852975387958286  0.2499997908876989
  0.8588637799193870  0.4284032885063403  0.2499997110836948
  0.8562406634847297  0.5719884892805318  0.2499998047374335
  0.8597469447073157  0.7172626908944018  0.2499997784748161
  0.8572371641949891  0.8587731788132329  0.2500005885174440
  0.0482129286877683  0.0962903187816476  0.2500000698845921
  0.0475602582832479  0.2383314188971334  0.2499997229201763
  0.0472207060092137  0.3814413293812966  0.2499997906173958
  0.0472493505270058  0.5242369408967964  0.2499997127816343
  0.0473642678709810  0.6669473917197590  0.2499996460580952
  0.0472341343550114  0.8096471160916597  0.2499997264588613
  0.0472948306956454  0.9525361903945095  0.2500001143169098
  0.1886294777611686  0.0932921567927381  0.2499995313241552
  0.1914388458605301  0.2397236317224972  0.2499999582036431
  0.1879003418984050  0.3814566858087157  0.2500001130985888
  0.1901903269830865  0.5252969563232998  0.2499998286098867
  0.1902762709233118  0.6673357954056592  0.2499998647526771
  0.1900423844512599  0.8092978913850490  0.2499998079502405
  0.1896713590785879  0.9512399316793567  0.2499998066902174
  0.3320166680401687  0.0920861646030997  0.2499993029206560
  0.3295844484597543  0.2319477699929251  0.2499982888783017
  0.3288216230470027  0.3826170322324587  0.2499991864593746
  0.3289731313596055  0.5247119859038822  0.2499994814265586
  0.3371080194110253  0.6718645113986225  0.2500001524394630
  0.3333046312440753  0.8098138105709289  0.2499999297265039
  0.3327038383541746  0.9508778547519244  0.2499998699986749
  0.4760960660865724  0.0919136128464473  0.2499995203872661
  0.4752813911101667  0.2320460401751935  0.2499992475376684
  0.4738884108519014  0.8060787934631674  0.2499998680805514
  0.4762084378498070  0.9509353492339293  0.2499999065894017
  0.6193178044194934  0.0931667998368229  0.2499998202412945
  0.6201823052275786  0.2343765770871336  0.2500000890728871
  0.6263555248231212  0.3727373286608731  0.2500011682067048
  0.6187413691183860  0.9512401476164661  0.2499998598638795
  0.7623331825326676  0.0951521582410473  0.2499998674537850
  0.7628614747981013  0.2368474499043919  0.2499997418448816
  0.7647183468588051  0.3792552423025336  0.2500001314333177
  0.7597102244539660  0.5236411716585582  0.2499999800140138
  0.7656377088224415  0.6711625222443570  0.2499999230580870
  0.7612891918418280  0.8116599907547322  0.2499998254018317
  0.7616331276470570  0.9533610811497235  0.2499998248473385
  0.9049376018144552  0.0953893529905766  0.2499998376733524
  0.9051784507813594  0.2379838631017540  0.2499998317620778
  0.9055484544581095  0.3808347398555155  0.2499997051010461
  0.9041916007113657  0.5241058738642090  0.2499997038798592
  0.9049455802461415  0.6673102094069310  0.2499997528675194
  0.9055018916289929  0.8116200353992269  0.2499998194182736
  0.9051184810787488  0.9535256451064450  0.2500000544699902
  0.4577409185573809  0.3563663371849966  0.2500145226370801
  0.4161016605636619  0.4448326918531100  0.2499927015812868
  0.4181760878333067  0.5719736988708269  0.2500034357506685
  0.6292916618466512  0.6771293556753892  0.2500013220043842
  0.6320285174317057  0.5524235369912953  0.2500016271340504
  0.5898679848370931  0.4225264890513438  0.2499989591687252
  0.4272183688871554  0.7164706556799579  0.2499999289622514
  0.6200551472442477  0.8128556660023845  0.2499997675625085
 
  0.00000000E+00  0.00000000E+00  0.00000000E+00
  0.00000000E+00  0.00000000E+00  0.00000000E+00
  0.00000000E+00  0.00000000E+00  0.00000000E+00
  0.00000000E+00  0.00000000E+00  0.00000000E+00
  0.00000000E+00  0.00000000E+00  0.00000000E+00
  0.00000000E+00  0.00000000E+00  0.00000000E+00
  0.00000000E+00  0.00000000E+00  0.00000000E+00
  0.00000000E+00  0.00000000E+00  0.00000000E+00
  0.00000000E+00  0.00000000E+00  0.00000000E+00
  0.00000000E+00  0.00000000E+00  0.00000000E+00
  0.00000000E+00  0.00000000E+00  0.00000000E+00
  0.00000000E+00  0.00000000E+00  0.00000000E+00
  0.00000000E+00  0.00000000E+00  0.00000000E+00
  0.00000000E+00  0.00000000E+00  0.00000000E+00
  0.00000000E+00  0.00000000E+00  0.00000000E+00
  0.00000000E+00  0.00000000E+00  0.00000000E+00
  0.00000000E+00  0.00000000E+00  0.00000000E+00
  0.00000000E+00  0.00000000E+00  0.00000000E+00
  0.00000000E+00  0.00000000E+00  0.00000000E+00
  0.00000000E+00  0.00000000E+00  0.00000000E+00
  0.00000000E+00  0.00000000E+00  0.00000000E+00
  0.00000000E+00  0.00000000E+00  0.00000000E+00
  0.00000000E+00  0.00000000E+00  0.00000000E+00
  0.00000000E+00  0.00000000E+00  0.00000000E+00
  0.00000000E+00  0.00000000E+00  0.00000000E+00
  0.00000000E+00  0.00000000E+00  0.00000000E+00
  0.00000000E+00  0.00000000E+00  0.00000000E+00
  0.00000000E+00  0.00000000E+00  0.00000000E+00
  0.00000000E+00  0.00000000E+00  0.00000000E+00
  0.00000000E+00  0.00000000E+00  0.00000000E+00
  0.00000000E+00  0.00000000E+00  0.00000000E+00
  0.00000000E+00  0.00000000E+00  0.00000000E+00
  0.00000000E+00  0.00000000E+00  0.00000000E+00
  0.00000000E+00  0.00000000E+00  0.00000000E+00
  0.00000000E+00  0.00000000E+00  0.00000000E+00
  0.00000000E+00  0.00000000E+00  0.00000000E+00
  0.00000000E+00  0.00000000E+00  0.00000000E+00
  0.00000000E+00  0.00000000E+00  0.00000000E+00
  0.00000000E+00  0.00000000E+00  0.00000000E+00
  0.00000000E+00  0.00000000E+00  0.00000000E+00
  0.00000000E+00  0.00000000E+00  0.00000000E+00
  0.00000000E+00  0.00000000E+00  0.00000000E+00
  0.00000000E+00  0.00000000E+00  0.00000000E+00
  0.00000000E+00  0.00000000E+00  0.00000000E+00
  0.00000000E+00  0.00000000E+00  0.00000000E+00
  0.00000000E+00  0.00000000E+00  0.00000000E+00
  0.00000000E+00  0.00000000E+00  0.00000000E+00
  0.00000000E+00  0.00000000E+00  0.00000000E+00
  0.00000000E+00  0.00000000E+00  0.00000000E+00
  0.00000000E+00  0.00000000E+00  0.00000000E+00
  0.00000000E+00  0.00000000E+00  0.00000000E+00
  0.00000000E+00  0.00000000E+00  0.00000000E+00
  0.00000000E+00  0.00000000E+00  0.00000000E+00
  0.00000000E+00  0.00000000E+00  0.00000000E+00
  0.00000000E+00  0.00000000E+00  0.00000000E+00
  0.00000000E+00  0.00000000E+00  0.00000000E+00
  0.00000000E+00  0.00000000E+00  0.00000000E+00
  0.00000000E+00  0.00000000E+00  0.00000000E+00
  0.00000000E+00  0.00000000E+00  0.00000000E+00
  0.00000000E+00  0.00000000E+00  0.00000000E+00
  0.00000000E+00  0.00000000E+00  0.00000000E+00
  0.00000000E+00  0.00000000E+00  0.00000000E+00
  0.00000000E+00  0.00000000E+00  0.00000000E+00
  0.00000000E+00  0.00000000E+00  0.00000000E+00
  0.00000000E+00  0.00000000E+00  0.00000000E+00
  0.00000000E+00  0.00000000E+00  0.00000000E+00
  0.00000000E+00  0.00000000E+00  0.00000000E+00
  0.00000000E+00  0.00000000E+00  0.00000000E+00
  0.00000000E+00  0.00000000E+00  0.00000000E+00
  0.00000000E+00  0.00000000E+00  0.00000000E+00
  0.00000000E+00  0.00000000E+00  0.00000000E+00
  0.00000000E+00  0.00000000E+00  0.00000000E+00
  0.00000000E+00  0.00000000E+00  0.00000000E+00
  0.00000000E+00  0.00000000E+00  0.00000000E+00
  0.00000000E+00  0.00000000E+00  0.00000000E+00
  0.00000000E+00  0.00000000E+00  0.00000000E+00
  0.00000000E+00  0.00000000E+00  0.00000000E+00
  0.00000000E+00  0.00000000E+00  0.00000000E+00
  0.00000000E+00  0.00000000E+00  0.00000000E+00
  0.00000000E+00  0.00000000E+00  0.00000000E+00
  0.00000000E+00  0.00000000E+00  0.00000000E+00
  0.00000000E+00  0.00000000E+00  0.00000000E+00
  0.00000000E+00  0.00000000E+00  0.00000000E+00
  0.00000000E+00  0.00000000E+00  0.00000000E+00
  0.00000000E+00  0.00000000E+00  0.00000000E+00
  0.00000000E+00  0.00000000E+00  0.00000000E+00
  0.00000000E+00  0.00000000E+00  0.00000000E+00
  0.00000000E+00  0.00000000E+00  0.00000000E+00
  0.00000000E+00  0.00000000E+00  0.00000000E+00
  0.00000000E+00  0.00000000E+00  0.00000000E+00
  0.00000000E+00  0.00000000E+00  0.00000000E+00
  0.00000000E+00  0.00000000E+00  0.00000000E+00
  0.00000000E+00  0.00000000E+00  0.00000000E+00
  0.00000000E+00  0.00000000E+00  0.00000000E+00
