C4                                      
    1.000000000000000     
    17.2710380553999983    0.0000000000000000    0.0000000000000000
    -8.6355190276999991   14.9571577057000002    0.0000000000000000
     0.0000000000000000    0.0000000000000000   15.0000000000000000
   C    H    N 
    84     4     4
Direct
 -0.0001683028848178  0.0000908546477382  0.2499978438328878
 -0.0006093277477705  0.1426990038733942  0.2499978144385356
 -0.0008918683074038  0.2854577081296913  0.2499975972568963
 -0.0007225138788560  0.4285767206708178  0.2499996620258137
 -0.0000995189677663  0.5716545948801253  0.2499988120701735
  0.0009843295653871  0.7149532494228994  0.2500001453172758
  0.0012071178156288  0.8581592000590851  0.2499985518022570
  0.1435477857587853  0.0007523201912053  0.2500036836919082
  0.1430379250342259  0.1437911723616241  0.2499990598115369
  0.1421039719322481  0.2860926557913478  0.2500010509355712
  0.1416983176685951  0.4288279044449176  0.2499974855220172
  0.1432320263872133  0.5713901578305118  0.2499994715258892
  0.1437170275651545  0.7142046952366294  0.2500008214920871
  0.1437215111643964  0.8574250361061949  0.2499992198493754
  0.2860541877278427 -0.0001984980933206  0.2500006345207416
  0.2858988821903500  0.1433960253144849  0.2500022178397139
  0.2864702107661993  0.2894343833949036  0.2499997545602200
  0.2841131754432044  0.4315809292760757  0.2499998729311979
  0.2877601695521181  0.5687318509113216  0.2499993683443203
  0.2869582656934089  0.7136059786743219  0.2500025963636530
  0.2862865269091049  0.8567627071050993  0.2500005332410954
  0.4289433887852224 -0.0009976054776315  0.2499998584249636
  0.4285595474122368  0.1421901832532532  0.2500041804657724
  0.4269525174223856  0.2824732833295361  0.2500027131193023
  0.4291912066961675  0.8552426527399034  0.2499988158928174
  0.5712206653935130 -0.0016664154345040  0.2499962515913981
  0.5713470923303235  0.1418077287425322  0.2499999930587499
  0.5721341442042878  0.2856838109954565  0.2500025053105460
  0.5735054030617123  0.8534972129684911  0.2499990740059553
  0.7134468395069400 -0.0017572236562013  0.2500004367798336
  0.7139649369946409  0.1420898859862724  0.2499998829644759
  0.7140232969195132  0.2857311413474978  0.2499982853396747
  0.7133683484963853  0.4287574559405222  0.2499990854239900
  0.7170457595184886  0.5762936276692051  0.2500009623521460
  0.7094395318271350  0.8540457126750751  0.2499997978407313
  0.8562121415236713 -0.0009730200727271  0.2499999697693825
  0.8563291379055632  0.1421222093934091  0.2499992710613398
  0.8564225503096280  0.2853613572654636  0.2500000327783120
  0.8567139456188758  0.4288171249458486  0.2500003893650852
  0.8570516206914607  0.5726049555590530  0.2500003243896525
  0.8589507395284973  0.7162501270203127  0.2499992011747416
  0.8566011338211584  0.8566151893335946  0.2499990475791037
  0.0476010703399866  0.0955910356521086  0.2499975458917728
  0.0466325588366519  0.2378314228068329  0.2499976825503719
  0.0463001395485410  0.3807681287245619  0.2499975683075439
  0.0476639049689217  0.5239796900916297  0.2499994919910137
  0.0482317291140027  0.6670285335119456  0.2500016150311096
  0.0485077062784320  0.8101393902019619  0.2499989377712559
  0.0482306337069757  0.9530489440175187  0.2500011424432824
  0.1906737057402839  0.0957749322379264  0.2500011865238640
  0.1903816816750765  0.2393129923878845  0.2499985046027504
  0.1885707412415849  0.3812458213018692  0.2499985916152122
  0.1908878584724160  0.5239136336293291  0.2499978913100288
  0.1912989935894606  0.6666303904530775  0.2500013010015519
  0.1912616614969827  0.8095845689582707  0.2500002783838999
  0.1910797492477408  0.9526106714417693  0.2500000684908963
  0.3334641792825418  0.0953966827255881  0.2500027104854306
  0.3341222804061675  0.2390961627423193  0.2500011908290169
  0.3304387309100132  0.3830751940849723  0.2500007892539211
  0.3381841208252247  0.6686120195383799  0.2500007275855164
  0.3340928055063648  0.8086658771008830  0.2500012125020163
  0.3335548280278264  0.9518252595711778  0.2500003688552527
  0.4762421414361502  0.0942158495925814  0.2500019441729224
  0.4754338753807147  0.2373876646032929  0.2500017922323455
  0.4741314485345009  0.8038958137070878  0.2499989967472185
  0.4763418654740878  0.9509093025798285  0.2499988233771004
  0.6185662591350569  0.0938212732485627  0.2499983311246501
  0.6189811637466687  0.2373875862541058  0.2500005553309436
  0.6205722741428984  0.3791838842933123  0.2500011246484591
  0.6183531465952546  0.9497807221210670  0.2500019838046272
  0.7612675033093501  0.0942394597140386  0.2499993252993769
  0.7614001075197991  0.2375769311501749  0.2500001987970370
  0.7615417097046818  0.3812987434440940  0.2499999675278111
  0.7610064147078086  0.5267187083931772  0.2500001881506548
  0.7633873213660299  0.6710391552791583  0.2500002396126946
  0.7598208341294416  0.8045196850540540  0.2499994586551646
  0.7605862078553693  0.9502819259996627  0.2500006088767403
  0.9038732167867221  0.0942449860555365  0.2499990367686890
  0.9038440935582324  0.2375478444000857  0.2499985037130913
  0.9039502134160324  0.3810364426158656  0.2500007325245073
  0.9044176859065225  0.5244712896003754  0.2500011411819459
  0.9054835201348629  0.6676780415566206  0.2499998171835890
  0.9058221177036996  0.8107399036640837  0.2499989593963199
  0.9042444420001066  0.9517963213614496  0.2499985989148046
  0.4632014890089753  0.3550010957133287  0.2500010812635257
  0.4030775476123206  0.4235015118831291  0.2500015241720420
  0.6444036833782374  0.5440905724003353  0.2500011725521168
  0.5842675569766369  0.4154052449279864  0.2500017446865689
  0.4280860201881403  0.7135699153663061  0.2499989105274724
  0.7161358440507818  0.7152218937508019  0.2500002456045783
  0.3313812758614619  0.5230327464955962  0.2500004161064982
  0.6195116654373769  0.8091743748047949  0.2499994955596562
 
  0.00000000E+00  0.00000000E+00  0.00000000E+00
  0.00000000E+00  0.00000000E+00  0.00000000E+00
  0.00000000E+00  0.00000000E+00  0.00000000E+00
  0.00000000E+00  0.00000000E+00  0.00000000E+00
  0.00000000E+00  0.00000000E+00  0.00000000E+00
  0.00000000E+00  0.00000000E+00  0.00000000E+00
  0.00000000E+00  0.00000000E+00  0.00000000E+00
  0.00000000E+00  0.00000000E+00  0.00000000E+00
  0.00000000E+00  0.00000000E+00  0.00000000E+00
  0.00000000E+00  0.00000000E+00  0.00000000E+00
  0.00000000E+00  0.00000000E+00  0.00000000E+00
  0.00000000E+00  0.00000000E+00  0.00000000E+00
  0.00000000E+00  0.00000000E+00  0.00000000E+00
  0.00000000E+00  0.00000000E+00  0.00000000E+00
  0.00000000E+00  0.00000000E+00  0.00000000E+00
  0.00000000E+00  0.00000000E+00  0.00000000E+00
  0.00000000E+00  0.00000000E+00  0.00000000E+00
  0.00000000E+00  0.00000000E+00  0.00000000E+00
  0.00000000E+00  0.00000000E+00  0.00000000E+00
  0.00000000E+00  0.00000000E+00  0.00000000E+00
  0.00000000E+00  0.00000000E+00  0.00000000E+00
  0.00000000E+00  0.00000000E+00  0.00000000E+00
  0.00000000E+00  0.00000000E+00  0.00000000E+00
  0.00000000E+00  0.00000000E+00  0.00000000E+00
  0.00000000E+00  0.00000000E+00  0.00000000E+00
  0.00000000E+00  0.00000000E+00  0.00000000E+00
  0.00000000E+00  0.00000000E+00  0.00000000E+00
  0.00000000E+00  0.00000000E+00  0.00000000E+00
  0.00000000E+00  0.00000000E+00  0.00000000E+00
  0.00000000E+00  0.00000000E+00  0.00000000E+00
  0.00000000E+00  0.00000000E+00  0.00000000E+00
  0.00000000E+00  0.00000000E+00  0.00000000E+00
  0.00000000E+00  0.00000000E+00  0.00000000E+00
  0.00000000E+00  0.00000000E+00  0.00000000E+00
  0.00000000E+00  0.00000000E+00  0.00000000E+00
  0.00000000E+00  0.00000000E+00  0.00000000E+00
  0.00000000E+00  0.00000000E+00  0.00000000E+00
  0.00000000E+00  0.00000000E+00  0.00000000E+00
  0.00000000E+00  0.00000000E+00  0.00000000E+00
  0.00000000E+00  0.00000000E+00  0.00000000E+00
  0.00000000E+00  0.00000000E+00  0.00000000E+00
  0.00000000E+00  0.00000000E+00  0.00000000E+00
  0.00000000E+00  0.00000000E+00  0.00000000E+00
  0.00000000E+00  0.00000000E+00  0.00000000E+00
  0.00000000E+00  0.00000000E+00  0.00000000E+00
  0.00000000E+00  0.00000000E+00  0.00000000E+00
  0.00000000E+00  0.00000000E+00  0.00000000E+00
  0.00000000E+00  0.00000000E+00  0.00000000E+00
  0.00000000E+00  0.00000000E+00  0.00000000E+00
  0.00000000E+00  0.00000000E+00  0.00000000E+00
  0.00000000E+00  0.00000000E+00  0.00000000E+00
  0.00000000E+00  0.00000000E+00  0.00000000E+00
  0.00000000E+00  0.00000000E+00  0.00000000E+00
  0.00000000E+00  0.00000000E+00  0.00000000E+00
  0.00000000E+00  0.00000000E+00  0.00000000E+00
  0.00000000E+00  0.00000000E+00  0.00000000E+00
  0.00000000E+00  0.00000000E+00  0.00000000E+00
  0.00000000E+00  0.00000000E+00  0.00000000E+00
  0.00000000E+00  0.00000000E+00  0.00000000E+00
  0.00000000E+00  0.00000000E+00  0.00000000E+00
  0.00000000E+00  0.00000000E+00  0.00000000E+00
  0.00000000E+00  0.00000000E+00  0.00000000E+00
  0.00000000E+00  0.00000000E+00  0.00000000E+00
  0.00000000E+00  0.00000000E+00  0.00000000E+00
  0.00000000E+00  0.00000000E+00  0.00000000E+00
  0.00000000E+00  0.00000000E+00  0.00000000E+00
  0.00000000E+00  0.00000000E+00  0.00000000E+00
  0.00000000E+00  0.00000000E+00  0.00000000E+00
  0.00000000E+00  0.00000000E+00  0.00000000E+00
  0.00000000E+00  0.00000000E+00  0.00000000E+00
  0.00000000E+00  0.00000000E+00  0.00000000E+00
  0.00000000E+00  0.00000000E+00  0.00000000E+00
  0.00000000E+00  0.00000000E+00  0.00000000E+00
  0.00000000E+00  0.00000000E+00  0.00000000E+00
  0.00000000E+00  0.00000000E+00  0.00000000E+00
  0.00000000E+00  0.00000000E+00  0.00000000E+00
  0.00000000E+00  0.00000000E+00  0.00000000E+00
  0.00000000E+00  0.00000000E+00  0.00000000E+00
  0.00000000E+00  0.00000000E+00  0.00000000E+00
  0.00000000E+00  0.00000000E+00  0.00000000E+00
  0.00000000E+00  0.00000000E+00  0.00000000E+00
  0.00000000E+00  0.00000000E+00  0.00000000E+00
  0.00000000E+00  0.00000000E+00  0.00000000E+00
  0.00000000E+00  0.00000000E+00  0.00000000E+00
  0.00000000E+00  0.00000000E+00  0.00000000E+00
  0.00000000E+00  0.00000000E+00  0.00000000E+00
  0.00000000E+00  0.00000000E+00  0.00000000E+00
  0.00000000E+00  0.00000000E+00  0.00000000E+00
  0.00000000E+00  0.00000000E+00  0.00000000E+00
  0.00000000E+00  0.00000000E+00  0.00000000E+00
  0.00000000E+00  0.00000000E+00  0.00000000E+00
  0.00000000E+00  0.00000000E+00  0.00000000E+00
