C    H    F    O                        
    1.000000000000000     
    17.2710380553999983    0.0000000000000000    0.0000000000000000
    -8.6355190276999991   14.9571577057000002    0.0000000000000000
     0.0000000000000000    0.0000000000000000   15.0000000000000000
   C    H    F    O 
    88     8     2     1
Selective dynamics
Direct
 -0.0000220720415312  0.9999800024743948  0.4989775564028255   T   T   T
  0.9995131779489903  0.1425520688310879  0.4996784558640234   T   T   T
  0.9992972936085489  0.2853684025270787  0.5011971757012099   T   T   T
  0.9994958625550394  0.4284371253120723  0.5028952372518061   T   T   T
  0.0000916055290393  0.5715535372919034  0.5029684631722667   T   T   T
  0.0011691926826954  0.7148315744044015  0.5012432363819239   T   T   T
  0.0010317689193031  0.8578902150508615  0.4992439407712405   T   T   T
  0.1432714692636029  0.0005841201187192  0.4998330988599435   T   T   T
  0.1428778831571661  0.1432522214536968  0.4972720953475342   T   T   T
  0.1416569406479423  0.2851230552046174  0.4954283518287073   T   T   T
  0.1415311122441756  0.4282990152426042  0.4978679268805014   T   T   T
  0.1425821410760811  0.5713061995394084  0.5016409570910607   T   T   T
  0.1432116117837733  0.7144210694848443  0.5031419996004466   T   T   T
  0.1433711470466808  0.8575742974580769  0.5024316575887000   T   T   T
  0.2857170447608904  0.0000110245317119  0.5021436185863954   T   T   T
  0.2857874843197631  0.1428669429641212  0.4964557677871182   T   T   T
  0.2860363069886613  0.2867610491111712  0.4869303822143168   T   T   T
  0.2822950640713648  0.4282349910909561  0.4830868475848875   T   T   T
  0.2853266631046649  0.5704229828464608  0.4934390659428871   T   T   T
  0.2855579775887624  0.7145502247873886  0.5013745902460487   T   T   T
  0.2856799044630140  0.8574688750843243  0.5037827381321117   T   T   T
  0.4286567583193985  0.0000625747770434  0.5037906765164863   T   T   T
  0.4284779445749598  0.1423794447962844  0.5016808027908078   T   T   T
  0.4273536132750750  0.2821288967749225  0.4973941464322946   T   T   T
  0.4266749325785741  0.7159534994586593  0.5007806701012922   T   T   T
  0.4282859791235357  0.8573477290299863  0.5032780762903426   T   T   T
  0.5712854770573986  0.0004009020381560  0.5033715306888900   T   T   T
  0.5713831314866740  0.1426534653646997  0.5038286663186343   T   T   T
  0.5722852592637585  0.2859764124052874  0.5026480963355221   T   T   T
  0.5720169905900554  0.8581783253181295  0.5013267203553555   T   T   T
  0.7141842399774366 -0.0000423192582244  0.5004161909849844   T   T   T
  0.7143289168145451  0.1428594657570269  0.5036671276956431   T   T   T
  0.7143285363435076  0.2856909556083327  0.5033697764756870   T   T   T
  0.7138123766323713  0.4277549765290504  0.4989462097241390   T   T   T
  0.7182262891405834  0.5731460286489588  0.4838686775139974   T   T   T
  0.7209612681375803  0.7164151595872295  0.4764533952644023   T   T   T
  0.7131050350636116  0.8571125734030457  0.4928813741642763   T   T   T
  0.8569825672450577  0.9999278437320002  0.4976581141762718   T   T   T
  0.8567532537317489  0.1426351705113320  0.5016739849827000   T   T   T
  0.8568208066388892  0.2854676814236475  0.5034553931659914   T   T   T
  0.8572195994833683  0.4285400892915311  0.5022240929873169   T   T   T
  0.8578870622409918  0.5718932881525454  0.4983478985915782   T   T   T
  0.8598142303905331  0.7154153543811254  0.4933380089801419   T   T   T
  0.8575093096692386  0.8569204803883018  0.4941531178338234   T   T   T
  0.0475823097297466  0.0953551752335420  0.4989852168760524   T   T   T
  0.0465547888666265  0.2374613040624201  0.4992972176842426   T   T   T
  0.0464371846965837  0.3805175776082937  0.5012804373632219   T   T   T
  0.0475023782873440  0.5237741709172603  0.5029688543419025   T   T   T
  0.0480997295073915  0.6668979561159065  0.5028300635478467   T   T   T
  0.0482918297722721  0.8099782440706788  0.5011153924104238   T   T   T
  0.0480538881908552  0.9527934163036487  0.4995789756272856   T   T   T
  0.1905734130885245  0.0954074881654395  0.4974581793913175   T   T   T
  0.1900549739286080  0.2384205931803640  0.4939498693378744   T   T   T
  0.1877865783169537  0.3799335072010937  0.4930750628175044   T   T   T
  0.1897199340989158  0.5234367142783837  0.4981213122741195   T   T   T
  0.1903655461490849  0.6667858740715276  0.5020552435818905   T   T   T
  0.1907529893129743  0.8098657090954802  0.5033449389785335   T   T   T
  0.1908061957959787  0.9526943367564383  0.5015366466212573   T   T   T
  0.3333712993907115  0.0953750476214823  0.5002836042941489   T   T   T
  0.3344446253222581  0.2382111428938911  0.4925252596055311   T   T   T
  0.3265419801209247  0.3788319027512354  0.4754393047173043   T   T   T
  0.3293287948327882  0.5221771700744423  0.4829965744370963   T   T   T
  0.3337658630853740  0.6675707121171083  0.4985812529221161   T   T   T
  0.3332459516899650  0.8096414704676894  0.5032264603062601   T   T   T
  0.3332167222557275  0.9524628646902727  0.5036193641559729   T   T   T
  0.4762684990964349  0.0949339894295044  0.5033690278137204   T   T   T
  0.4755350504762366  0.2371720786916978  0.5013409656292217   T   T   T
  0.4752738144680337  0.8093492158329656  0.5024795710461261   T   T   T
  0.4761751105170883  0.9526790721200125  0.5037625191849423   T   T   T
  0.6188881874900066  0.0952638378757757  0.5038291288179686   T   T   T
  0.6192812807043613  0.2379846221820122  0.5034269587391601   T   T   T
  0.6209024259005098  0.3793686281778570  0.5010673170140593   T   T   T
  0.6201886592530740  0.8132142371068334  0.4975249868884749   T   T   T
  0.6190794078683466  0.9529622467357133  0.5017227822948037   T   T   T
  0.7618386110482739  0.0953196013568499  0.5022480887724313   T   T   T
  0.7618852135383862  0.2378553205498417  0.5038728393546710   T   T   T
  0.7620240752429167  0.3807816057550716  0.5016235192849747   T   T   T
  0.7622648004553910  0.5249068684397610  0.4939420323984651   T   T   T
  0.7652732849253095  0.6670774507695842  0.4838054232719466   T   T   T
  0.7614994680582394  0.8085371706312910  0.4874435019050944   T   T   T
  0.7617703690258583  0.9524644710879390  0.4967190235454592   T   T   T
  0.9042894228443662  0.0947519901231874  0.4999973024474649   T   T   T
  0.9042083227108005  0.2377637980400689  0.5025489368156041   T   T   T
  0.9043823652930740  0.3809161172290428  0.5032628074391491   T   T   T
  0.9050136583945642  0.5240113392728452  0.5017595835270928   T   T   T
  0.9060753095156598  0.6670465925573423  0.4980154194972304   T   T   T
  0.9059257353104296  0.8102362714283184  0.4955446321734715   T   T   T
  0.9046797371891759  0.9520906799056056  0.4973716606422627   T   T   T
  0.4638028728479618  0.3542026168112375  0.4978866667365596   T   T   T
  0.4015610640249632  0.5556077814365749  0.4762726709455374   T   T   T
  0.6459724572528205  0.5396761432146330  0.4775165585468244   T   T   T
  0.5849792722258752  0.4159864412712498  0.5015443717567484   T   T   T
  0.5837210937014840  0.7411459076095156  0.4979075294290293   T   T   T
  0.4625818136673817  0.6793136404126545  0.5012555808572786   T   T   T
  0.5714947730800687  0.5870014098117494  0.6438333295773707   T   T   T
  0.4762566759448172  0.5058743861115022  0.6448658525329344   T   T   T
  0.4156828837419136  0.4291614468042821  0.4565676444908066   T   T   T
  0.6316424314683402  0.6658291168179941  0.4584420292413739   T   T   T
  0.5235692847806918  0.5460118237938933  0.6046639079999991   T   T   F
 
  0.00000000E+00  0.00000000E+00  0.00000000E+00
  0.00000000E+00  0.00000000E+00  0.00000000E+00
  0.00000000E+00  0.00000000E+00  0.00000000E+00
  0.00000000E+00  0.00000000E+00  0.00000000E+00
  0.00000000E+00  0.00000000E+00  0.00000000E+00
  0.00000000E+00  0.00000000E+00  0.00000000E+00
  0.00000000E+00  0.00000000E+00  0.00000000E+00
  0.00000000E+00  0.00000000E+00  0.00000000E+00
  0.00000000E+00  0.00000000E+00  0.00000000E+00
  0.00000000E+00  0.00000000E+00  0.00000000E+00
  0.00000000E+00  0.00000000E+00  0.00000000E+00
  0.00000000E+00  0.00000000E+00  0.00000000E+00
  0.00000000E+00  0.00000000E+00  0.00000000E+00
  0.00000000E+00  0.00000000E+00  0.00000000E+00
  0.00000000E+00  0.00000000E+00  0.00000000E+00
  0.00000000E+00  0.00000000E+00  0.00000000E+00
  0.00000000E+00  0.00000000E+00  0.00000000E+00
  0.00000000E+00  0.00000000E+00  0.00000000E+00
  0.00000000E+00  0.00000000E+00  0.00000000E+00
  0.00000000E+00  0.00000000E+00  0.00000000E+00
  0.00000000E+00  0.00000000E+00  0.00000000E+00
  0.00000000E+00  0.00000000E+00  0.00000000E+00
  0.00000000E+00  0.00000000E+00  0.00000000E+00
  0.00000000E+00  0.00000000E+00  0.00000000E+00
  0.00000000E+00  0.00000000E+00  0.00000000E+00
  0.00000000E+00  0.00000000E+00  0.00000000E+00
  0.00000000E+00  0.00000000E+00  0.00000000E+00
  0.00000000E+00  0.00000000E+00  0.00000000E+00
  0.00000000E+00  0.00000000E+00  0.00000000E+00
  0.00000000E+00  0.00000000E+00  0.00000000E+00
  0.00000000E+00  0.00000000E+00  0.00000000E+00
  0.00000000E+00  0.00000000E+00  0.00000000E+00
  0.00000000E+00  0.00000000E+00  0.00000000E+00
  0.00000000E+00  0.00000000E+00  0.00000000E+00
  0.00000000E+00  0.00000000E+00  0.00000000E+00
  0.00000000E+00  0.00000000E+00  0.00000000E+00
  0.00000000E+00  0.00000000E+00  0.00000000E+00
  0.00000000E+00  0.00000000E+00  0.00000000E+00
  0.00000000E+00  0.00000000E+00  0.00000000E+00
  0.00000000E+00  0.00000000E+00  0.00000000E+00
  0.00000000E+00  0.00000000E+00  0.00000000E+00
  0.00000000E+00  0.00000000E+00  0.00000000E+00
  0.00000000E+00  0.00000000E+00  0.00000000E+00
  0.00000000E+00  0.00000000E+00  0.00000000E+00
  0.00000000E+00  0.00000000E+00  0.00000000E+00
  0.00000000E+00  0.00000000E+00  0.00000000E+00
  0.00000000E+00  0.00000000E+00  0.00000000E+00
  0.00000000E+00  0.00000000E+00  0.00000000E+00
  0.00000000E+00  0.00000000E+00  0.00000000E+00
  0.00000000E+00  0.00000000E+00  0.00000000E+00
  0.00000000E+00  0.00000000E+00  0.00000000E+00
  0.00000000E+00  0.00000000E+00  0.00000000E+00
  0.00000000E+00  0.00000000E+00  0.00000000E+00
  0.00000000E+00  0.00000000E+00  0.00000000E+00
  0.00000000E+00  0.00000000E+00  0.00000000E+00
  0.00000000E+00  0.00000000E+00  0.00000000E+00
  0.00000000E+00  0.00000000E+00  0.00000000E+00
  0.00000000E+00  0.00000000E+00  0.00000000E+00
  0.00000000E+00  0.00000000E+00  0.00000000E+00
  0.00000000E+00  0.00000000E+00  0.00000000E+00
  0.00000000E+00  0.00000000E+00  0.00000000E+00
  0.00000000E+00  0.00000000E+00  0.00000000E+00
  0.00000000E+00  0.00000000E+00  0.00000000E+00
  0.00000000E+00  0.00000000E+00  0.00000000E+00
  0.00000000E+00  0.00000000E+00  0.00000000E+00
  0.00000000E+00  0.00000000E+00  0.00000000E+00
  0.00000000E+00  0.00000000E+00  0.00000000E+00
  0.00000000E+00  0.00000000E+00  0.00000000E+00
  0.00000000E+00  0.00000000E+00  0.00000000E+00
  0.00000000E+00  0.00000000E+00  0.00000000E+00
  0.00000000E+00  0.00000000E+00  0.00000000E+00
  0.00000000E+00  0.00000000E+00  0.00000000E+00
  0.00000000E+00  0.00000000E+00  0.00000000E+00
  0.00000000E+00  0.00000000E+00  0.00000000E+00
  0.00000000E+00  0.00000000E+00  0.00000000E+00
  0.00000000E+00  0.00000000E+00  0.00000000E+00
  0.00000000E+00  0.00000000E+00  0.00000000E+00
  0.00000000E+00  0.00000000E+00  0.00000000E+00
  0.00000000E+00  0.00000000E+00  0.00000000E+00
  0.00000000E+00  0.00000000E+00  0.00000000E+00
  0.00000000E+00  0.00000000E+00  0.00000000E+00
  0.00000000E+00  0.00000000E+00  0.00000000E+00
  0.00000000E+00  0.00000000E+00  0.00000000E+00
  0.00000000E+00  0.00000000E+00  0.00000000E+00
  0.00000000E+00  0.00000000E+00  0.00000000E+00
  0.00000000E+00  0.00000000E+00  0.00000000E+00
  0.00000000E+00  0.00000000E+00  0.00000000E+00
  0.00000000E+00  0.00000000E+00  0.00000000E+00
  0.00000000E+00  0.00000000E+00  0.00000000E+00
  0.00000000E+00  0.00000000E+00  0.00000000E+00
  0.00000000E+00  0.00000000E+00  0.00000000E+00
  0.00000000E+00  0.00000000E+00  0.00000000E+00
  0.00000000E+00  0.00000000E+00  0.00000000E+00
  0.00000000E+00  0.00000000E+00  0.00000000E+00
  0.00000000E+00  0.00000000E+00  0.00000000E+00
  0.00000000E+00  0.00000000E+00  0.00000000E+00
  0.00000000E+00  0.00000000E+00  0.00000000E+00
  0.00000000E+00  0.00000000E+00  0.00000000E+00
  0.00000000E+00  0.00000000E+00  0.00000000E+00
