C    H    F    O 
    1.000000000000000     
  17.2710380553999983   0.0000000000000000   0.0000000000000000
  -8.6355190276999991  14.9571577057000002   0.0000000000000000
   0.0000000000000000   0.0000000000000000  15.0000000000000000
C    H    F    O 
88  8  2  1  
Selective dynamics
Direct
  0.9999693718644250  0.9999924993368930  0.5010387677796474 T T T
  0.9994924974711230  0.1425511640414995  0.5014723849378828 T T T
  0.9992612297604599  0.2854010805062209  0.5026522996494767 T T T
  0.9994976310500115  0.4284492384309223  0.5042935816681783 T T T
  0.0000997073183091  0.5715650272481501  0.5042004528191680 T T T
  0.0011445095660378  0.7147968023036524  0.5022395766359289 T T T
  0.0010304245553193  0.8579051624346525  0.5007492862736872 T T T
  0.1432646290114933  0.0005606142392288  0.5009870972616248 T T T
  0.1428237300134537  0.1432023461023146  0.4987147435225895 T T T
  0.1415995856601369  0.2850809295156189  0.4964676336043089 T T T
  0.1414865946704600  0.4282423006924079  0.4983427129828507 T T T
  0.1426047702555214  0.5712712345038657  0.5022067298863507 T T T
  0.1432447732992723  0.7144160703443536  0.5038545391223033 T T T
  0.1433912968574987  0.8575691369509034  0.5031704466767115 T T T
  0.2857575802774837  0.9999853020323580  0.5020840117034927 T T T
  0.2857283640986663  0.1428009899865423  0.4966801066965982 T T T
  0.2859193461414132  0.2866416163753616  0.4873362461812755 T T T
  0.2821933193369037  0.4280936049072012  0.4828638617434687 T T T
  0.2852964183535418  0.5703378353401035  0.4928463315472791 T T T
  0.2855690609324942  0.7144436246252487  0.5012901945981488 T T T
  0.2857007721304277  0.8573794672945441  0.5037960502986052 T T T
  0.4286259657516190  0.9999881513627770  0.5035879039273798 T T T
  0.4284722678958757  0.1422812810737924  0.5011300763990886 T T T
  0.4273013099410808  0.2820341656955633  0.4967949503005066 T T T
  0.4267327098027848  0.7159154898873564  0.4998588636397988 T T T
  0.4282979494056727  0.8573024268888544  0.5030529537554481 T T T
  0.5712762772941891  0.0003707942255667  0.5032942190125151 T T T
  0.5713772739556697  0.1426705658400322  0.5037039572888958 T T T
  0.5722331650166581  0.2859931459809805  0.5020772098556135 T T T
  0.5720445951664791  0.8581628841944718  0.5010105092315480 T T T
  0.7141763121144790  0.0000111352672665  0.5007634001978899 T T T
  0.7142989980427503  0.1428600553807867  0.5041325301033698 T T T
  0.7142914714297874  0.2856913521015457  0.5036952102830597 T T T
  0.7137641843436729  0.4277652644631235  0.4984984255480207 T T T
  0.7183707139697035  0.5732045132456679  0.4828520794112247 T T T
  0.7211599381634010  0.7165399239697662  0.4761234802920774 T T T
  0.7132318995438098  0.8571810030002176  0.4930293401967488 T T T
  0.8569919034929457  0.9999523540211390  0.4988953021052580 T T T
  0.8567538770094115  0.1426809451501240  0.5028137096448704 T T T
  0.8567880109264007  0.2855090970221569  0.5047579391281619 T T T
  0.8571672269052624  0.4285508011798895  0.5031670589933185 T T T
  0.8579250501730691  0.5719052375661081  0.4985192613170594 T T T
  0.8598349447998413  0.7154379605897131  0.4938578433085920 T T T
  0.8575592159809577  0.8569556722461875  0.4953376692659334 T T T
  0.0475496284184308  0.0953404662577484  0.5009420014833269 T T T
  0.0465204335640242  0.2374833699491611  0.5007976110040417 T T T
  0.0464265239301484  0.3805437779683557  0.5024846671758848 T T T
  0.0475369192925186  0.5238008468652582  0.5041218811000457 T T T
  0.0480914030196603  0.6669017506188227  0.5038528175931057 T T T
  0.0482929045766590  0.8099778810283998  0.5022705294569183 T T T
  0.0480599347073932  0.9528181468039876  0.5013271066519140 T T T
  0.1905685109571315  0.0954040868739265  0.4984319621371111 T T T
  0.1899704524159449  0.2383356173204763  0.4949532781981241 T T T
  0.1877203260750751  0.3798545821177529  0.4933835144707622 T T T
  0.1897036320176335  0.5234160423740578  0.4981126944382397 T T T
  0.1904288783522259  0.6667883328916318  0.5024894119112737 T T T
  0.1907749286760330  0.8098343798313006  0.5038101128695218 T T T
  0.1908273171401470  0.9526989445720244  0.5021057745371463 T T T
  0.3333571241616165  0.0953142962711613  0.5000372025127340 T T T
  0.3343435583165802  0.2381413705679128  0.4925773186935678 T T T
  0.3264688018576840  0.3787143042070465  0.4756669290760474 T T T
  0.3292280145622355  0.5220323889872391  0.4823772325586601 T T T
  0.3337998620029983  0.6674931997979816  0.4979404751668862 T T T
  0.3332403613441703  0.8095567486352593  0.5031380587285400 T T T
  0.3332444110265272  0.9524250815865440  0.5034006124961223 T T T
  0.4762318287902127  0.0948978870377114  0.5030310700853745 T T T
  0.4754965040286436  0.2371264804651861  0.5006580662009161 T T T
  0.4753224727352638  0.8092899240078043  0.5019818360598727 T T T
  0.4761213240141131  0.9525734699705404  0.5036023697275060 T T T
  0.6189039623680573  0.0952828728098270  0.5038731407517640 T T T
  0.6192353347388018  0.2379703948854169  0.5032635260631160 T T T
  0.6208462378256716  0.3793852139001526  0.5002879831183319 T T T
  0.6202880957155132  0.8132905185377853  0.4973040620850682 T T T
  0.6190771041749924  0.9530034599586260  0.5016433479251442 T T T
  0.7618169429045971  0.0953247581396172  0.5029156362877991 T T T
  0.7618483146036158  0.2378952443260404  0.5046726371316701 T T T
  0.7619921319043274  0.3808060498809414  0.5018825298805035 T T T
  0.7622928971737551  0.5249088810705130  0.4933910383723977 T T T
  0.7653803223210479  0.6671417769197696  0.4835394652022883 T T T
  0.7616424176763259  0.8086314350048427  0.4877890514617331 T T T
  0.7618071752371097  0.9525211894614600  0.4972679052445622 T T T
  0.9042783336860820  0.0948168276884617  0.5014245168081738 T T T
  0.9041801682428908  0.2378048708171228  0.5039648902386139 T T T
  0.9043457562890592  0.3809374014290127  0.5046465412245323 T T T
  0.9050180682059908  0.5240753188614953  0.5026387551285573 T T T
  0.9060707624980634  0.6670666879904353  0.4984749738577900 T T T
  0.9059272883278244  0.8102263231646945  0.4967844310619151 T T T
  0.9046846568562044  0.9520970726422844  0.4990364515061140 T T T
  0.4637495029080573  0.3541191315490874  0.4972167964284167 T T T
  0.4014695686339552  0.5553701768690189  0.4758101179522601 T T T
  0.6461453658980143  0.5399003912611103  0.4761786110529214 T T T
  0.5848659365456363  0.4159568479217409  0.5003371385665109 T T T
  0.5838430008649298  0.7412228887262355  0.4976619110718799 T T T
  0.4626762516326147  0.6793052606320299  0.4996720285509524 T T T
  0.5669207973672058  0.5924068118768349  0.6441240828167880 T T T
  0.4805730948837687  0.5009628130924872  0.6446155329503983 T T T
  0.4156377917061697  0.4288938769573944  0.4569550493137075 T T T
  0.6319844893891916  0.6662624433324243  0.4573035631251792 T T T
  0.5237388656874571  0.5463967057207153  0.6046639079999991 T T F
