C4                                      
    1.000000000000000     
    17.2710380553999983    0.0000000000000000    0.0000000000000000
    -8.6355190276999991   14.9571577057000002    0.0000000000000000
     0.0000000000000000    0.0000000000000000   15.0000000000000000
   C    F    N 
    84     4     4
Direct
 -0.0004393226803474 -0.0011913961528854  0.2500061464758698
 -0.0012546219694469  0.1411975592091688  0.2500032573678203
 -0.0014152434460463  0.2849889752726814  0.2500018125842024
 -0.0011806174599551  0.4289365296407804  0.2500028283762923
 -0.0004060228413103  0.5720709819438715  0.2500040071956598
  0.0010804529586531  0.7149675147215595  0.2500048515824543
  0.0010749885259020  0.8574589276017509  0.2500045990767444
  0.1440410741238204  0.0005344668221768  0.2500036945257443
  0.1422844566748402  0.1419630768995488  0.2500056142168130
  0.1390629825972113  0.2828473438812182  0.2500016361965822
  0.1390977848046657  0.4276879328444557  0.2499999456353457
  0.1423729599952113  0.5718251748054731  0.2499996212645730
  0.1440225013031081  0.7149361931165287  0.2500058474663586
  0.1441998219290719  0.8577956376882192  0.2500055372888152
  0.2870177573341654  0.0005406816318446  0.2500042800497687
  0.2874290920559808  0.1436043941282363  0.2500158433348985
  0.2842753102021696  0.2851189182653234  0.2499862819101829
  0.2757871784869209  0.4236554420725751  0.2499952238125464
  0.2843634264835354  0.5706589884503818  0.2499969447506621
  0.2874434350691235  0.7154078746693128  0.2500072378721839
  0.2870024395024069  0.8579446716925825  0.2500078219127894
  0.4300604324533944  0.0008397623080788  0.2500042016487763
  0.4306365840880982  0.1427142860598352  0.2500170526872308
  0.4297623692156454  0.2806016460048892  0.2499417908996667
  0.4296360204106885  0.7208135839776945  0.2499829982784268
  0.4306416673488287  0.8596137291765953  0.2500117415288453
  0.5732414692416727  0.0014006546545111  0.2500060637141759
  0.5732064489998981  0.1435717599022098  0.2500019759084378
  0.5771693682605531  0.2893529463481044  0.2499994561572847
  0.5770530350790238  0.8594008971688265  0.2500051357763298
  0.7159545307246686  0.0004038700281856  0.2500001658611562
  0.7157290998539345  0.1436828085255454  0.2499998716034686
  0.7159836115284647  0.2871411624624617  0.2500025061301168
  0.7114581389313497  0.4275955659537083  0.2500092805387071
  0.7112921107681993  0.8553515969812093  0.2500009664403499
  0.8570403739177648 -0.0010746954999475  0.2500032544923264
  0.8573493189240604  0.1426720720371074  0.2500015188685281
  0.8573599832501075  0.2861866853017029  0.2500034502686681
  0.8570901599402960  0.4295973313392684  0.2500006445376684
  0.8562640896829549  0.5724399138297019  0.2500048157084096
  0.8582052645716390  0.7149098019603518  0.2500035706807766
  0.8561885448962239  0.8553036093729268  0.2500068767609638
  0.0469950095719566  0.0940797416667550  0.2500053852227690
  0.0448162571258050  0.2359081405034634  0.2499995055369437
  0.0448333855113514  0.3802926925798693  0.2500017324427868
  0.0470869039202781  0.5243138680137457  0.2500033594308592
  0.0484208627593315  0.6673782302202267  0.2500024931197564
  0.0487749428340365  0.8100595158870377  0.2500050102733887
  0.0484274514022436  0.9523655342272476  0.2500046164628097
  0.1914973653043590  0.0955310403558438  0.2500096333106719
  0.1884381274804683  0.2366983108707305  0.2499996655991958
  0.1828349682273186  0.3771626644038594  0.2499999934206661
  0.1885254761299283  0.5232287035010122  0.2499984905856181
  0.1915195745091162  0.6674821180722420  0.2500001318109262
  0.1918087081905838  0.8102779229432016  0.2500069198014419
  0.1917949569532010  0.9529240043447578  0.2500033588574174
  0.3350856076592658  0.0959222577661337  0.2500119716316630
  0.3356294314519652  0.2392529626504142  0.2499960308055437
  0.3224388466598866  0.3771104514501624  0.2499884769732358
  0.3225385975910434  0.5168640016220144  0.2500061723014698
  0.3355713243339693  0.6679265294786153  0.2499993254933253
  0.3351106218172327  0.8107422341511903  0.2500105975034966
  0.3345562750875284  0.9530203285359574  0.2500020569284439
  0.4781197376158748  0.0954850375029262  0.2500097998183368
  0.4792388256360103  0.2372445997678768  0.2500010425635207
  0.4791632280244024  0.8136664239070180  0.2500056963596387
  0.4781637021542163  0.9543279820615819  0.2500082472294185
  0.6206512789927595  0.0962143048357849  0.2500006729324060
  0.6215749909989811  0.2389888214860519  0.2499968774473252
  0.6215189867433405  0.9542140376770113  0.2500046450039116
  0.7629678220548085  0.0957657142942415  0.2500007401463695
  0.7629854949779309  0.2388254822968034  0.2500041502759441
  0.7623673972469323  0.3825137299545336  0.2500021505004021
  0.7596163742971512  0.5286627244705353  0.2500070605092963
  0.7621591932915431  0.6668727372968712  0.2500020854611734
  0.7594698360252508  0.8024659011551393  0.2500047684246570
  0.7622650130677961  0.9513126185432943  0.2500013465752390
  0.9040620466152230  0.0938275473653715  0.2500030304431516
  0.9042014716156058  0.2378424799192956  0.2500023500007855
  0.9041195941525235  0.3817033276601710  0.2500014065118282
  0.9041228712490638  0.5248128108777955  0.2500037762597425
  0.9054225355456806  0.6673479821387319  0.2500050149227024
  0.9054558341267682  0.8096491894865605  0.2500056567321513
  0.9040895177360166  0.9507305661435324  0.2500056726225779
  0.4841568352972483  0.3680242070837337  0.2498127925774658
  0.4098517405637835  0.4293725709924926  0.2500059185331480
  0.4099684447402339  0.5519295028590420  0.2500331313798712
  0.4838136338386796  0.6876095654590496  0.2499174179760268
  0.7156582590086956  0.5747365188493146  0.2500037425039130
  0.7155760704178505  0.7124299838030166  0.2500027737961950
  0.6226671583185931  0.3799195368490443  0.2500169665089261
  0.6224915270046628  0.8142622508475044  0.2500057670848280
 
  0.00000000E+00  0.00000000E+00  0.00000000E+00
  0.00000000E+00  0.00000000E+00  0.00000000E+00
  0.00000000E+00  0.00000000E+00  0.00000000E+00
  0.00000000E+00  0.00000000E+00  0.00000000E+00
  0.00000000E+00  0.00000000E+00  0.00000000E+00
  0.00000000E+00  0.00000000E+00  0.00000000E+00
  0.00000000E+00  0.00000000E+00  0.00000000E+00
  0.00000000E+00  0.00000000E+00  0.00000000E+00
  0.00000000E+00  0.00000000E+00  0.00000000E+00
  0.00000000E+00  0.00000000E+00  0.00000000E+00
  0.00000000E+00  0.00000000E+00  0.00000000E+00
  0.00000000E+00  0.00000000E+00  0.00000000E+00
  0.00000000E+00  0.00000000E+00  0.00000000E+00
  0.00000000E+00  0.00000000E+00  0.00000000E+00
  0.00000000E+00  0.00000000E+00  0.00000000E+00
  0.00000000E+00  0.00000000E+00  0.00000000E+00
  0.00000000E+00  0.00000000E+00  0.00000000E+00
  0.00000000E+00  0.00000000E+00  0.00000000E+00
  0.00000000E+00  0.00000000E+00  0.00000000E+00
  0.00000000E+00  0.00000000E+00  0.00000000E+00
  0.00000000E+00  0.00000000E+00  0.00000000E+00
  0.00000000E+00  0.00000000E+00  0.00000000E+00
  0.00000000E+00  0.00000000E+00  0.00000000E+00
  0.00000000E+00  0.00000000E+00  0.00000000E+00
  0.00000000E+00  0.00000000E+00  0.00000000E+00
  0.00000000E+00  0.00000000E+00  0.00000000E+00
  0.00000000E+00  0.00000000E+00  0.00000000E+00
  0.00000000E+00  0.00000000E+00  0.00000000E+00
  0.00000000E+00  0.00000000E+00  0.00000000E+00
  0.00000000E+00  0.00000000E+00  0.00000000E+00
  0.00000000E+00  0.00000000E+00  0.00000000E+00
  0.00000000E+00  0.00000000E+00  0.00000000E+00
  0.00000000E+00  0.00000000E+00  0.00000000E+00
  0.00000000E+00  0.00000000E+00  0.00000000E+00
  0.00000000E+00  0.00000000E+00  0.00000000E+00
  0.00000000E+00  0.00000000E+00  0.00000000E+00
  0.00000000E+00  0.00000000E+00  0.00000000E+00
  0.00000000E+00  0.00000000E+00  0.00000000E+00
  0.00000000E+00  0.00000000E+00  0.00000000E+00
  0.00000000E+00  0.00000000E+00  0.00000000E+00
  0.00000000E+00  0.00000000E+00  0.00000000E+00
  0.00000000E+00  0.00000000E+00  0.00000000E+00
  0.00000000E+00  0.00000000E+00  0.00000000E+00
  0.00000000E+00  0.00000000E+00  0.00000000E+00
  0.00000000E+00  0.00000000E+00  0.00000000E+00
  0.00000000E+00  0.00000000E+00  0.00000000E+00
  0.00000000E+00  0.00000000E+00  0.00000000E+00
  0.00000000E+00  0.00000000E+00  0.00000000E+00
  0.00000000E+00  0.00000000E+00  0.00000000E+00
  0.00000000E+00  0.00000000E+00  0.00000000E+00
  0.00000000E+00  0.00000000E+00  0.00000000E+00
  0.00000000E+00  0.00000000E+00  0.00000000E+00
  0.00000000E+00  0.00000000E+00  0.00000000E+00
  0.00000000E+00  0.00000000E+00  0.00000000E+00
  0.00000000E+00  0.00000000E+00  0.00000000E+00
  0.00000000E+00  0.00000000E+00  0.00000000E+00
  0.00000000E+00  0.00000000E+00  0.00000000E+00
  0.00000000E+00  0.00000000E+00  0.00000000E+00
  0.00000000E+00  0.00000000E+00  0.00000000E+00
  0.00000000E+00  0.00000000E+00  0.00000000E+00
  0.00000000E+00  0.00000000E+00  0.00000000E+00
  0.00000000E+00  0.00000000E+00  0.00000000E+00
  0.00000000E+00  0.00000000E+00  0.00000000E+00
  0.00000000E+00  0.00000000E+00  0.00000000E+00
  0.00000000E+00  0.00000000E+00  0.00000000E+00
  0.00000000E+00  0.00000000E+00  0.00000000E+00
  0.00000000E+00  0.00000000E+00  0.00000000E+00
  0.00000000E+00  0.00000000E+00  0.00000000E+00
  0.00000000E+00  0.00000000E+00  0.00000000E+00
  0.00000000E+00  0.00000000E+00  0.00000000E+00
  0.00000000E+00  0.00000000E+00  0.00000000E+00
  0.00000000E+00  0.00000000E+00  0.00000000E+00
  0.00000000E+00  0.00000000E+00  0.00000000E+00
  0.00000000E+00  0.00000000E+00  0.00000000E+00
  0.00000000E+00  0.00000000E+00  0.00000000E+00
  0.00000000E+00  0.00000000E+00  0.00000000E+00
  0.00000000E+00  0.00000000E+00  0.00000000E+00
  0.00000000E+00  0.00000000E+00  0.00000000E+00
  0.00000000E+00  0.00000000E+00  0.00000000E+00
  0.00000000E+00  0.00000000E+00  0.00000000E+00
  0.00000000E+00  0.00000000E+00  0.00000000E+00
  0.00000000E+00  0.00000000E+00  0.00000000E+00
  0.00000000E+00  0.00000000E+00  0.00000000E+00
  0.00000000E+00  0.00000000E+00  0.00000000E+00
  0.00000000E+00  0.00000000E+00  0.00000000E+00
  0.00000000E+00  0.00000000E+00  0.00000000E+00
  0.00000000E+00  0.00000000E+00  0.00000000E+00
  0.00000000E+00  0.00000000E+00  0.00000000E+00
  0.00000000E+00  0.00000000E+00  0.00000000E+00
  0.00000000E+00  0.00000000E+00  0.00000000E+00
  0.00000000E+00  0.00000000E+00  0.00000000E+00
  0.00000000E+00  0.00000000E+00  0.00000000E+00
