C    H    N    O 
    1.000000000000000     
  17.2710380553999983   0.0000000000000000   0.0000000000000000
  -8.6355190276999991  14.9571577057000002   0.0000000000000000
   0.0000000000000000   0.0000000000000000  15.0000000000000000
C    H    N    O 
86  8  2  1  
Selective dynamics
Direct
  0.9988458449985748  0.9991576541454044  0.5003304956355401 T T T
  0.9990057214581300  0.1420923324921398  0.4999136480990482 T T T
  0.9991673166544880  0.2852712097998218  0.4996079225643286 T T T
  0.9989989132867952  0.4282531316631798  0.4997916899217024 T T T
  0.9989258765210688  0.5710396743423853  0.5002808235784254 T T T
  0.9989780668490440  0.7136458514865861  0.5003050247946413 T T T
  0.9989845643001150  0.8566896109785966  0.5002623956334381 T T T
  0.1424883877595952  0.9999585917308080  0.5006864572587038 T T T
  0.1422233668248022  0.1425350852109388  0.4994627278788105 T T T
  0.1415295091625788  0.2848081650729488  0.4982242736960687 T T T
  0.1415424253266147  0.4281072183982104  0.4980566587391714 T T T
  0.1422522169005342  0.5710412353129856  0.4991820406896486 T T T
  0.1425515279816445  0.7139399438959201  0.5005751576295812 T T T
  0.1423835674059112  0.8568822203854082  0.5010565977144148 T T T
  0.2856082574588650  0.9999569595849050  0.5010514539953417 T T T
  0.2859841660138355  0.1430707239150105  0.4994956776185440 T T T
  0.2857113811818415  0.2869289020336707  0.4972439097234405 T T T
  0.2833252389916039  0.4273641785338178  0.4962648347350955 T T T
  0.2857575434027300  0.5701606173590690  0.4971314260851256 T T T
  0.2860022950543503  0.7142761470998030  0.4992920737999958 T T T
  0.2856420214461655  0.8570715490714051  0.5008823735231641 T T T
  0.4285478548666588  0.9999581187467700  0.5010719427472056 T T T
  0.4292370691473334  0.1434529752573800  0.5002805676459002 T T T
  0.4281475839245272  0.2836982287474925  0.4978064177477388 T T T
  0.4282196651391746  0.7158676674602683  0.4976231087192168 T T T
  0.4292553990041969  0.8571696554985039  0.5001177227090806 T T T
  0.5712043858411217  0.9999774896161240  0.5007205288263885 T T T
  0.5711807948577701  0.1425963605521225  0.5008126524209016 T T T
  0.5745602847168536  0.2884437502846258  0.4993409436332189 T T T
  0.5745856709393530  0.8575283907894866  0.4991244336800150 T T T
  0.7140599265769053  0.0003722851616657  0.5001786656679396 T T T
  0.7139848061904742  0.1426730332756103  0.5009000467679064 T T T
  0.7140642244372915  0.2850398309534438  0.5001360433060730 T T T
  0.7095795678604880  0.4241772770918036  0.4980490976058265 T T T
  0.7139220067801559  0.5709330864642856  0.4930686308593666 T T T
  0.7139009844567822  0.7142951485045130  0.4928756641388354 T T T
  0.7095986560863209  0.8567497362111531  0.4979543905687170 T T T
  0.8560142415871824  0.9993031899098122  0.4997711938665556 T T T
  0.8565535962852557  0.1425929141480652  0.5004256316604748 T T T
  0.8565875488534466  0.2853531845286824  0.5003516613929034 T T T
  0.8560505859008033  0.4280674476540316  0.4997106782934275 T T T
  0.8549586287889479  0.5701293751056563  0.4987587989298776 T T T
  0.8558843510477210  0.7135973243170612  0.4977843698589684 T T T
  0.8549110880043760  0.8560724994650561  0.4986835226290412 T T T
  0.0468225667839695  0.0945811952938122  0.5000247605085095 T T T
  0.0462582591696428  0.2371439045660156  0.4993361188508182 T T T
  0.0462620057246701  0.3804830602041117  0.4991961911968028 T T T
  0.0468500111437644  0.5235735270930063  0.4998604068510770 T T T
  0.0468855575878562  0.6663680639577904  0.5005680069417979 T T T
  0.0466629303418232  0.8090067255246903  0.5006291513327884 T T T
  0.0468468098392442  0.9518497880696412  0.5005660693338702 T T T
  0.1902796343093392  0.0950224445470962  0.4999462374346498 T T T
  0.1896797874516551  0.2377298257831572  0.4982090780462988 T T T
  0.1880243882806615  0.3797252787546622  0.4973227233705685 T T T
  0.1897260643777445  0.5233309581307313  0.4979654315536743 T T T
  0.1903170822446181  0.6666151217221290  0.4997544901159982 T T T
  0.1902959025657521  0.8094451400772544  0.5009400760661191 T T T
  0.1902634454083243  0.9522460373914940  0.5010510223399685 T T T
  0.3337741919980822  0.0957117729806472  0.5003614247358916 T T T
  0.3347131510120492  0.2385951375497046  0.4980437173597975 T T T
  0.3296610649197659  0.3796825288396868  0.4962568087537563 T T T
  0.3297206945882817  0.5213845708599559  0.4962710745582048 T T T
  0.3347857121985220  0.6674998931993209  0.4979118736128570 T T T
  0.3337681318771810  0.8094443810658876  0.5001783747451152 T T T
  0.3330584607957122  0.9522436778968720  0.5011361977695561 T T T
  0.4761648310737566  0.0951149220517528  0.5008730171757612 T T T
  0.4768775300165647  0.2391427084202268  0.4992808948364497 T T T
  0.4769072530170594  0.8091442309727356  0.4990246526251313 T T T
  0.4762011950866898  0.9524366202463084  0.5007937351477261 T T T
  0.6186358912374238  0.0950121898878833  0.5009563636974540 T T T
  0.6193184463620832  0.2379975273006814  0.5001239253041625 T T T
  0.6193483648060564  0.9527250438228020  0.5000763391973891 T T T
  0.7616930371248423  0.0955069482873301  0.5007073478333682 T T T
  0.7616965048130985  0.2375411000273751  0.5006879753509518 T T T
  0.7606812530889487  0.3798381814492048  0.4992769057126641 T T T
  0.7584411650478403  0.5224779867868691  0.4966665911970730 T T T
  0.7599435612491093  0.6656430766785356  0.4942742264412728 T T T
  0.7584246891264664  0.8072684288907147  0.4965646077417267 T T T
  0.7606537536764550  0.9521904296124948  0.4993232504701591 T T T
  0.9037043886289921  0.0943306904211769  0.5001556954307010 T T T
  0.9040926940515024  0.2377260170271758  0.5002478079165958 T T T
  0.9037257370224726  0.3807380112874174  0.5000539597541743 T T T
  0.9034590597685612  0.5234194194108294  0.4998117187804270 T T T
  0.9030584651634528  0.6655894393963285  0.4990269971907254 T T T
  0.9030654739214016  0.8087590063503947  0.4989896925388708 T T T
  0.9033754282036988  0.9513076030587262  0.4997910538869789 T T T
  0.4668413692222871  0.3563398132959326  0.4963947661316916 T T T
  0.4023066061923889  0.4190176795682493  0.4968554567365317 T T T
  0.4023632854358556  0.5547526935515255  0.4970138213942800 T T T
  0.6411113096403682  0.6781033030344394  0.4889059493774492 T T T
  0.6411199207462112  0.5343020445717176  0.4891464358179700 T T T
  0.4670110830458524  0.6820251528184756  0.4963280352815687 T T T
  0.5569520879256306  0.6088972363130288  0.6197886542063765 T T T
  0.5571704224422176  0.5199445496063128  0.6198397793117841 T T T
  0.6195479578755420  0.3789183693610577  0.4985223726843668 T T T
  0.6195649423013261  0.8120252571285438  0.4983043956478159 T T T
  0.5202328827947498  0.5459386005994744  0.6046639079999991 T T F
