C4                                      
    1.000000000000000     
    17.2710380553999983    0.0000000000000000    0.0000000000000000
    -8.6355190276999991   14.9571577057000002    0.0000000000000000
     0.0000000000000000    0.0000000000000000   15.0000000000000000
   C    F    N 
    84     4     4
Direct
 -0.0004867458834080 -0.0001649416052246  0.2500007470391813
  0.0005102866860587  0.1432269545741560  0.2499974033075775
  0.0011108437339888  0.2863122181252751  0.2499948101415617
  0.0004651348540863  0.4288454023592198  0.2499980775038229
 -0.0004915289578325  0.5712214746848964  0.2500008777799069
 -0.0008727073305186  0.7137217365764273  0.2500016337724700
 -0.0008376763006738  0.8569558367026358  0.2499989088974966
  0.1427853424649689  0.0000379937044333  0.2499999921345013
  0.1437836328085466  0.1433451018814196  0.2500009962392711
  0.1444023153179502  0.2861207412160963  0.2499975365817856
  0.1444015557154224  0.4296979571531349  0.2499975914546975
  0.1437654861790803  0.5718858719275717  0.2500009976746424
  0.1427457745691563  0.7142222901276152  0.2500000149673049
  0.1421637513033439  0.8568147103788074  0.2499985722990300
  0.2854028691040461 -0.0005589308507313  0.2500010412827272
  0.2865715646358187  0.1423620486406218  0.2500033415422209
  0.2891515585094024  0.2866128193878689  0.2500049067225813
  0.2868856667349992  0.4291332013143147  0.2500011111548394
  0.2892335968969560  0.5739452088327370  0.2499989643345923
  0.2865254157532567  0.7157322833005418  0.2500023449958805
  0.2853714778727932  0.8574520053760298  0.2500018163037943
  0.4286724145096753  0.0000983558876731  0.2500011386442889
  0.4289579488459698  0.1429441776818515  0.2500019411717235
  0.4288674680144121  0.8574748377191173  0.2500011194864510
  0.5713365435682503  0.0002425623513032  0.2499980697600202
  0.5713601387288995  0.1427436762040678  0.2499972139762764
  0.5734117793200809  0.2882307375080093  0.2499967973679021
  0.5733575813227521  0.8567581451667662  0.2499991960329295
  0.7139344289412002  0.0004832564362098  0.2499979459000788
  0.7145167000548229  0.1430427934555094  0.2499979823037369
  0.7139367773778574  0.2849692433802455  0.2499945058403996
  0.7091557705865065  0.4233770067132439  0.2499995884513790
  0.7150969272738968  0.5714273292960133  0.2500045863525002
  0.7152856342965913  0.7154324923023674  0.2500118576536384
  0.7091183519687824  0.8573031526280357  0.2500007120907073
  0.8565885839770410  0.0000867377172988  0.2499992232357552
  0.8574367718674594  0.1431717871000311  0.2499996167155731
  0.8574326487629976  0.2857726025414125  0.2499942331922176
  0.8565569445169964  0.4280737877748673  0.2499974554993946
  0.8550051787608984  0.5701319271709852  0.2500024973597632
  0.8565066050039426  0.7140442801845794  0.2499990735266671
  0.8550739376928296  0.8564948492753804  0.2499980993058460
  0.0481148431705938  0.0955433337363033  0.2499984390974547
  0.0486616492999894  0.2384735172822542  0.2499957131602733
  0.0486117041539428  0.3817082847637077  0.2499961855663603
  0.0480878696474542  0.5241236140934832  0.2499996093464703
  0.0471757227382512  0.6665164574558974  0.2500012973258506
  0.0466073228388253  0.8090593933428334  0.2499996111302145
  0.0471879791181119  0.9521651231740528  0.2499987595161430
  0.1909834757617746  0.0951820288834263  0.2500026830776827
  0.1925965553096298  0.2387722964260696  0.2500009268913673
  0.1912690167233966  0.3813480156531731  0.2499989836755396
  0.1926066423723957  0.5252146526800702  0.2499991847522923
  0.1909258538548475  0.6672614474156479  0.2500018119276899
  0.1901792075230422  0.8095841162843691  0.2500000086269686
  0.1901676933866418  0.9520534673161343  0.2499983758168961
  0.3336902348450286  0.0948044370608454  0.2500020745195909
  0.3384688831107027  0.2379200585882240  0.2500032370278170
  0.3323843926251066  0.3798746676293060  0.2500021417654602
  0.3324598386444861  0.5238710045903391  0.2499976185586335
  0.3384344326482331  0.6720076878753009  0.2500006557519377
  0.3336319090979622  0.8104017403469922  0.2500029199198390
  0.3331131181763806  0.9522911298670801  0.2500006249214425
  0.4763730983067525  0.0951543775646831  0.2500003103522110
  0.4742956523050814  0.2385746132116530  0.2499997511579068
  0.4742229807601415  0.8071979227390613  0.2499999212514211
  0.4763390348599560  0.9527150787146162  0.2500014435955302
  0.6189944069956517  0.0953212427382101  0.2499988781683077
  0.6187223646656617  0.2379098199425831  0.2499987817282001
  0.6186909350913532  0.9523905102212581  0.2499979242938279
  0.7621610202256810  0.0958026291498026  0.2499979920019090
  0.7621743855363188  0.2379109435333231  0.2499943886576516
  0.7610110314851376  0.3796220425719002  0.2499968280978080
  0.7583720273728234  0.5213738402559462  0.2500021161739761
  0.7608387476904070  0.6661959621936848  0.2500024202177227
  0.7584948740058545  0.8086716156227770  0.2500017757519906
  0.7610095420310229  0.9528841343677834  0.2499994178191544
  0.9049042758016088  0.0952513373853766  0.2499981119859777
  0.9054626933297450  0.2384808073490769  0.2499961132641121
  0.9048495609338137  0.3811736590029326  0.2499950582540943
  0.9038057330030042  0.5234645970491165  0.2500010216251563
  0.9033787555075173  0.6656787018271390  0.2500018343503987
  0.9033947688856923  0.8092914547838181  0.2499988835619834
  0.9038096013132565  0.9519379063546523  0.2499999888317948
  0.4218015406383335  0.4263371494428565  0.2500014673712325
  0.4218301324675038  0.5664271310520148  0.2499916641185652
  0.6258349018197027  0.6687448747362195  0.2500208959064717
  0.6255950765971269  0.5288925261610895  0.2500083894288838
  0.4284812912380673  0.2826256844816399  0.2500002605243054
  0.4284473079390541  0.7173215191297634  0.2500005694010501
  0.6191397884629525  0.3780876554601077  0.2499982752334892
  0.6191049472456248  0.8126363521267964  0.2500001145018108
 
  0.00000000E+00  0.00000000E+00  0.00000000E+00
  0.00000000E+00  0.00000000E+00  0.00000000E+00
  0.00000000E+00  0.00000000E+00  0.00000000E+00
  0.00000000E+00  0.00000000E+00  0.00000000E+00
  0.00000000E+00  0.00000000E+00  0.00000000E+00
  0.00000000E+00  0.00000000E+00  0.00000000E+00
  0.00000000E+00  0.00000000E+00  0.00000000E+00
  0.00000000E+00  0.00000000E+00  0.00000000E+00
  0.00000000E+00  0.00000000E+00  0.00000000E+00
  0.00000000E+00  0.00000000E+00  0.00000000E+00
  0.00000000E+00  0.00000000E+00  0.00000000E+00
  0.00000000E+00  0.00000000E+00  0.00000000E+00
  0.00000000E+00  0.00000000E+00  0.00000000E+00
  0.00000000E+00  0.00000000E+00  0.00000000E+00
  0.00000000E+00  0.00000000E+00  0.00000000E+00
  0.00000000E+00  0.00000000E+00  0.00000000E+00
  0.00000000E+00  0.00000000E+00  0.00000000E+00
  0.00000000E+00  0.00000000E+00  0.00000000E+00
  0.00000000E+00  0.00000000E+00  0.00000000E+00
  0.00000000E+00  0.00000000E+00  0.00000000E+00
  0.00000000E+00  0.00000000E+00  0.00000000E+00
  0.00000000E+00  0.00000000E+00  0.00000000E+00
  0.00000000E+00  0.00000000E+00  0.00000000E+00
  0.00000000E+00  0.00000000E+00  0.00000000E+00
  0.00000000E+00  0.00000000E+00  0.00000000E+00
  0.00000000E+00  0.00000000E+00  0.00000000E+00
  0.00000000E+00  0.00000000E+00  0.00000000E+00
  0.00000000E+00  0.00000000E+00  0.00000000E+00
  0.00000000E+00  0.00000000E+00  0.00000000E+00
  0.00000000E+00  0.00000000E+00  0.00000000E+00
  0.00000000E+00  0.00000000E+00  0.00000000E+00
  0.00000000E+00  0.00000000E+00  0.00000000E+00
  0.00000000E+00  0.00000000E+00  0.00000000E+00
  0.00000000E+00  0.00000000E+00  0.00000000E+00
  0.00000000E+00  0.00000000E+00  0.00000000E+00
  0.00000000E+00  0.00000000E+00  0.00000000E+00
  0.00000000E+00  0.00000000E+00  0.00000000E+00
  0.00000000E+00  0.00000000E+00  0.00000000E+00
  0.00000000E+00  0.00000000E+00  0.00000000E+00
  0.00000000E+00  0.00000000E+00  0.00000000E+00
  0.00000000E+00  0.00000000E+00  0.00000000E+00
  0.00000000E+00  0.00000000E+00  0.00000000E+00
  0.00000000E+00  0.00000000E+00  0.00000000E+00
  0.00000000E+00  0.00000000E+00  0.00000000E+00
  0.00000000E+00  0.00000000E+00  0.00000000E+00
  0.00000000E+00  0.00000000E+00  0.00000000E+00
  0.00000000E+00  0.00000000E+00  0.00000000E+00
  0.00000000E+00  0.00000000E+00  0.00000000E+00
  0.00000000E+00  0.00000000E+00  0.00000000E+00
  0.00000000E+00  0.00000000E+00  0.00000000E+00
  0.00000000E+00  0.00000000E+00  0.00000000E+00
  0.00000000E+00  0.00000000E+00  0.00000000E+00
  0.00000000E+00  0.00000000E+00  0.00000000E+00
  0.00000000E+00  0.00000000E+00  0.00000000E+00
  0.00000000E+00  0.00000000E+00  0.00000000E+00
  0.00000000E+00  0.00000000E+00  0.00000000E+00
  0.00000000E+00  0.00000000E+00  0.00000000E+00
  0.00000000E+00  0.00000000E+00  0.00000000E+00
  0.00000000E+00  0.00000000E+00  0.00000000E+00
  0.00000000E+00  0.00000000E+00  0.00000000E+00
  0.00000000E+00  0.00000000E+00  0.00000000E+00
  0.00000000E+00  0.00000000E+00  0.00000000E+00
  0.00000000E+00  0.00000000E+00  0.00000000E+00
  0.00000000E+00  0.00000000E+00  0.00000000E+00
  0.00000000E+00  0.00000000E+00  0.00000000E+00
  0.00000000E+00  0.00000000E+00  0.00000000E+00
  0.00000000E+00  0.00000000E+00  0.00000000E+00
  0.00000000E+00  0.00000000E+00  0.00000000E+00
  0.00000000E+00  0.00000000E+00  0.00000000E+00
  0.00000000E+00  0.00000000E+00  0.00000000E+00
  0.00000000E+00  0.00000000E+00  0.00000000E+00
  0.00000000E+00  0.00000000E+00  0.00000000E+00
  0.00000000E+00  0.00000000E+00  0.00000000E+00
  0.00000000E+00  0.00000000E+00  0.00000000E+00
  0.00000000E+00  0.00000000E+00  0.00000000E+00
  0.00000000E+00  0.00000000E+00  0.00000000E+00
  0.00000000E+00  0.00000000E+00  0.00000000E+00
  0.00000000E+00  0.00000000E+00  0.00000000E+00
  0.00000000E+00  0.00000000E+00  0.00000000E+00
  0.00000000E+00  0.00000000E+00  0.00000000E+00
  0.00000000E+00  0.00000000E+00  0.00000000E+00
  0.00000000E+00  0.00000000E+00  0.00000000E+00
  0.00000000E+00  0.00000000E+00  0.00000000E+00
  0.00000000E+00  0.00000000E+00  0.00000000E+00
  0.00000000E+00  0.00000000E+00  0.00000000E+00
  0.00000000E+00  0.00000000E+00  0.00000000E+00
  0.00000000E+00  0.00000000E+00  0.00000000E+00
  0.00000000E+00  0.00000000E+00  0.00000000E+00
  0.00000000E+00  0.00000000E+00  0.00000000E+00
  0.00000000E+00  0.00000000E+00  0.00000000E+00
  0.00000000E+00  0.00000000E+00  0.00000000E+00
  0.00000000E+00  0.00000000E+00  0.00000000E+00
