C4                                      
    1.000000000000000     
    17.2710380553999983    0.0000000000000000    0.0000000000000000
    -8.6355190276999991   14.9571577057000002    0.0000000000000000
     0.0000000000000000    0.0000000000000000   15.0000000000000000
   C    H    F 
    88     6     2
Direct
 -0.0005304787254252 -0.0005289554061737  0.2500038755233361
 -0.0009225759794323  0.1421325430799000  0.2500018546261589
 -0.0009352263271963  0.2851005414203018  0.2499999499186774
 -0.0003135969292224  0.4284047624216099  0.2499993178735032
  0.0005976624149598  0.5716614540965372  0.2500024447614676
  0.0015513324916784  0.7149195046866242  0.2500015782237003
  0.0008164409930940  0.8576082016356333  0.2500019585486071
  0.1430266727636781  0.0004163822120515  0.2500044907538228
  0.1422520991032381  0.1429448436445172  0.2500042322416621
  0.1410246837858719  0.2848792974786136  0.2499989417770205
  0.1410249176534341  0.4282584811174208  0.2499958553714310
  0.1427549014864262  0.5715069925874033  0.2499990138626706
  0.1434517350967478  0.7147514138074614  0.2499979841789559
  0.1434325748470824  0.8577701134560304  0.2499978197779105
  0.2857679786408947  0.0003483408205096  0.2499988457780206
  0.2852939091568278  0.1427947279539928  0.2500005010836644
  0.2851868371178957  0.2876933747224313  0.2499999066383240
  0.2815074528007874  0.4276450886941612  0.2499966826045266
  0.2852860145109535  0.5706279456467040  0.2499964326713679
  0.2854961219081580  0.7149421797011603  0.2499994274380967
  0.2856786856974971  0.8578252411092193  0.2499966947106418
  0.4287182811888178  0.0005238555986796  0.2499993030673458
  0.4286236685643167  0.1428960043454920  0.2499979962769724
  0.4253868615047751  0.2797699957795349  0.2499987005339295
  0.4264897981531269  0.7165285275961124  0.2500004984070811
  0.4281475671077828  0.8578031175275964  0.2500016566835164
  0.5713213672681118  0.0006741484950934  0.2500026120964243
  0.5716684885760210  0.1430207502704231  0.2500012574695734
  0.5733166997850668  0.2867965103610017  0.2499946705854068
  0.5716578099193220  0.8585502799444323  0.2500031222464414
  0.7140575074972029 -0.0002103748561866  0.2500018643312344
  0.7144097328725861  0.1427070962116649  0.2499983588769121
  0.7148466095080539  0.2854384900626527  0.2499999027802285
  0.7161384355902730  0.4275981545617959  0.2500006602136107
  0.7184092340345118  0.5724296290456170  0.2499986844447010
  0.7195787960551774  0.7147800903831324  0.2499969897526148
  0.7124037131629031  0.8565204916690562  0.2499974003865683
  0.8564939822043105 -0.0006146302431739  0.2500007872202286
  0.8566839862593029  0.1423257325337364  0.2499996644805732
  0.8569747736489625  0.2851948346106764  0.2500016397231880
  0.8581471276147736  0.4283797608599976  0.2500011469812247
  0.8587417287344847  0.5718935736387732  0.2500052572511389
  0.8598067260979180  0.7150423886134825  0.2499946388546765
  0.8568277613812766  0.8562269215738613  0.2499972533337033
  0.0470018469701792  0.0948649110281723  0.2500041480343840
  0.0460159220775874  0.2370288920645014  0.2499995869627616
  0.0461807940831571  0.3803352826646316  0.2499987839446853
  0.0477738856536660  0.5238052473012286  0.2500009413010622
  0.0484551796442981  0.6670372886062341  0.2500004807911625
  0.0484350679610548  0.8100557327491200  0.2499995280932417
  0.0477699225898374  0.9524863758588910  0.2500050875910774
  0.1900676764361827  0.0952539799937059  0.2500035159471700
  0.1892597165056880  0.2380775023655750  0.2500000554221297
  0.1868686162697550  0.3797194732620801  0.2499952360778706
  0.1895528035537144  0.5234795014673663  0.2499986652663347
  0.1904625240563677  0.6670898124530953  0.2499987065254846
  0.1908277650931864  0.8101323785684972  0.2499970924722948
  0.1907980139242389  0.9528520761900757  0.2499998496702815
  0.3333917434281508  0.0956741169863380  0.2499967917095569
  0.3326125918597887  0.2380800709621753  0.2500006671184274
  0.3279680378027362  0.3807283365050138  0.2499996783840424
  0.3287798149661675  0.5216198112105274  0.2499973720056713
  0.3336642913365122  0.6679469108927485  0.2499991564377892
  0.3331719538203423  0.8100723032590068  0.2499991838419028
  0.3332998716256533  0.9528465737479983  0.2499978640363761
  0.4764519616929775  0.0954834254546614  0.2499989399320719
  0.4767532498514273  0.2380313473382118  0.2499990838985217
  0.4751167861575841  0.8098552031857298  0.2500022129032113
  0.4761881407197132  0.9530639994002041  0.2500015611081792
  0.6190514574519895  0.0954851574435322  0.2500017049748999
  0.6197847129727171  0.2381340477266884  0.2500012860542509
  0.6237846725690389  0.3801279416581342  0.2499953982115919
  0.6194789675363280  0.8133746905770219  0.2500035310699226
  0.6189629385375393  0.9532230228960116  0.2500028231651130
  0.7618261072782855  0.0951064080248224  0.2500014122228701
  0.7620908433355668  0.2376135077909983  0.2500010388415460
  0.7634355613162253  0.3804846825690411  0.2500006812946148
  0.7633195883079761  0.5245831361523144  0.2500035688932569
  0.7648152863347495  0.6662324845920659  0.2499927426918171
  0.7604268238029988  0.8074948717726094  0.2499939239204479
  0.7613474642732377  0.9519446751481101  0.2499982483223879
  0.9039422061464296  0.0942770125318414  0.2500008037558130
  0.9041433114459195  0.2374612306915369  0.2500023369641713
  0.9048292116753142  0.3806550837064912  0.2499971862736105
  0.9057082333418390  0.5239384232690557  0.2500046693407048
  0.9065224885362075  0.6670427223334688  0.2500000352698335
  0.9055918232975465  0.8098270906159207  0.2499974095004376
  0.9040962070083308  0.9514548848072694  0.2500001430370162
  0.3996153063548754  0.4218548911097643  0.2500023666820243
  0.4014676169012117  0.5543287342307723  0.2499996498985258
  0.6459416171717960  0.5386981349709365  0.2499981842990059
  0.5907768321362975  0.4185609299465362  0.2499984999866129
  0.5824933326256787  0.7414993423545819  0.2500017023902639
  0.4625725503751978  0.6801095617071874  0.2500020330116585
  0.4708208553627429  0.3708928910871396  0.2499955544096383
  0.6281335782615174  0.6617433492177955  0.2500170016814128
 
  0.00000000E+00  0.00000000E+00  0.00000000E+00
  0.00000000E+00  0.00000000E+00  0.00000000E+00
  0.00000000E+00  0.00000000E+00  0.00000000E+00
  0.00000000E+00  0.00000000E+00  0.00000000E+00
  0.00000000E+00  0.00000000E+00  0.00000000E+00
  0.00000000E+00  0.00000000E+00  0.00000000E+00
  0.00000000E+00  0.00000000E+00  0.00000000E+00
  0.00000000E+00  0.00000000E+00  0.00000000E+00
  0.00000000E+00  0.00000000E+00  0.00000000E+00
  0.00000000E+00  0.00000000E+00  0.00000000E+00
  0.00000000E+00  0.00000000E+00  0.00000000E+00
  0.00000000E+00  0.00000000E+00  0.00000000E+00
  0.00000000E+00  0.00000000E+00  0.00000000E+00
  0.00000000E+00  0.00000000E+00  0.00000000E+00
  0.00000000E+00  0.00000000E+00  0.00000000E+00
  0.00000000E+00  0.00000000E+00  0.00000000E+00
  0.00000000E+00  0.00000000E+00  0.00000000E+00
  0.00000000E+00  0.00000000E+00  0.00000000E+00
  0.00000000E+00  0.00000000E+00  0.00000000E+00
  0.00000000E+00  0.00000000E+00  0.00000000E+00
  0.00000000E+00  0.00000000E+00  0.00000000E+00
  0.00000000E+00  0.00000000E+00  0.00000000E+00
  0.00000000E+00  0.00000000E+00  0.00000000E+00
  0.00000000E+00  0.00000000E+00  0.00000000E+00
  0.00000000E+00  0.00000000E+00  0.00000000E+00
  0.00000000E+00  0.00000000E+00  0.00000000E+00
  0.00000000E+00  0.00000000E+00  0.00000000E+00
  0.00000000E+00  0.00000000E+00  0.00000000E+00
  0.00000000E+00  0.00000000E+00  0.00000000E+00
  0.00000000E+00  0.00000000E+00  0.00000000E+00
  0.00000000E+00  0.00000000E+00  0.00000000E+00
  0.00000000E+00  0.00000000E+00  0.00000000E+00
  0.00000000E+00  0.00000000E+00  0.00000000E+00
  0.00000000E+00  0.00000000E+00  0.00000000E+00
  0.00000000E+00  0.00000000E+00  0.00000000E+00
  0.00000000E+00  0.00000000E+00  0.00000000E+00
  0.00000000E+00  0.00000000E+00  0.00000000E+00
  0.00000000E+00  0.00000000E+00  0.00000000E+00
  0.00000000E+00  0.00000000E+00  0.00000000E+00
  0.00000000E+00  0.00000000E+00  0.00000000E+00
  0.00000000E+00  0.00000000E+00  0.00000000E+00
  0.00000000E+00  0.00000000E+00  0.00000000E+00
  0.00000000E+00  0.00000000E+00  0.00000000E+00
  0.00000000E+00  0.00000000E+00  0.00000000E+00
  0.00000000E+00  0.00000000E+00  0.00000000E+00
  0.00000000E+00  0.00000000E+00  0.00000000E+00
  0.00000000E+00  0.00000000E+00  0.00000000E+00
  0.00000000E+00  0.00000000E+00  0.00000000E+00
  0.00000000E+00  0.00000000E+00  0.00000000E+00
  0.00000000E+00  0.00000000E+00  0.00000000E+00
  0.00000000E+00  0.00000000E+00  0.00000000E+00
  0.00000000E+00  0.00000000E+00  0.00000000E+00
  0.00000000E+00  0.00000000E+00  0.00000000E+00
  0.00000000E+00  0.00000000E+00  0.00000000E+00
  0.00000000E+00  0.00000000E+00  0.00000000E+00
  0.00000000E+00  0.00000000E+00  0.00000000E+00
  0.00000000E+00  0.00000000E+00  0.00000000E+00
  0.00000000E+00  0.00000000E+00  0.00000000E+00
  0.00000000E+00  0.00000000E+00  0.00000000E+00
  0.00000000E+00  0.00000000E+00  0.00000000E+00
  0.00000000E+00  0.00000000E+00  0.00000000E+00
  0.00000000E+00  0.00000000E+00  0.00000000E+00
  0.00000000E+00  0.00000000E+00  0.00000000E+00
  0.00000000E+00  0.00000000E+00  0.00000000E+00
  0.00000000E+00  0.00000000E+00  0.00000000E+00
  0.00000000E+00  0.00000000E+00  0.00000000E+00
  0.00000000E+00  0.00000000E+00  0.00000000E+00
  0.00000000E+00  0.00000000E+00  0.00000000E+00
  0.00000000E+00  0.00000000E+00  0.00000000E+00
  0.00000000E+00  0.00000000E+00  0.00000000E+00
  0.00000000E+00  0.00000000E+00  0.00000000E+00
  0.00000000E+00  0.00000000E+00  0.00000000E+00
  0.00000000E+00  0.00000000E+00  0.00000000E+00
  0.00000000E+00  0.00000000E+00  0.00000000E+00
  0.00000000E+00  0.00000000E+00  0.00000000E+00
  0.00000000E+00  0.00000000E+00  0.00000000E+00
  0.00000000E+00  0.00000000E+00  0.00000000E+00
  0.00000000E+00  0.00000000E+00  0.00000000E+00
  0.00000000E+00  0.00000000E+00  0.00000000E+00
  0.00000000E+00  0.00000000E+00  0.00000000E+00
  0.00000000E+00  0.00000000E+00  0.00000000E+00
  0.00000000E+00  0.00000000E+00  0.00000000E+00
  0.00000000E+00  0.00000000E+00  0.00000000E+00
  0.00000000E+00  0.00000000E+00  0.00000000E+00
  0.00000000E+00  0.00000000E+00  0.00000000E+00
  0.00000000E+00  0.00000000E+00  0.00000000E+00
  0.00000000E+00  0.00000000E+00  0.00000000E+00
  0.00000000E+00  0.00000000E+00  0.00000000E+00
  0.00000000E+00  0.00000000E+00  0.00000000E+00
  0.00000000E+00  0.00000000E+00  0.00000000E+00
  0.00000000E+00  0.00000000E+00  0.00000000E+00
  0.00000000E+00  0.00000000E+00  0.00000000E+00
  0.00000000E+00  0.00000000E+00  0.00000000E+00
  0.00000000E+00  0.00000000E+00  0.00000000E+00
  0.00000000E+00  0.00000000E+00  0.00000000E+00
  0.00000000E+00  0.00000000E+00  0.00000000E+00
