C    H    N    O                        
    1.000000000000000     
    17.2710380553999983    0.0000000000000000    0.0000000000000000
    -8.6355190276999991   14.9571577057000002    0.0000000000000000
     0.0000000000000000    0.0000000000000000   15.0000000000000000
   C    H    N    O 
    86     8     2     1
Selective dynamics
Direct
  0.9991867214420357  0.9993434221652159  0.5012541849786788   T   T   T
  0.9989055252927252  0.1419879058215769  0.5006107518389292   T   T   T
  0.9989163234434976  0.2851288065841460  0.5003739867516246   T   T   T
  0.9989134129804357  0.4282437353617409  0.5007312448624941   T   T   T
  0.9992340210602253  0.5711900615396484  0.5012790415245246   T   T   T
  0.9995840565742329  0.7139345075698529  0.5012574521131290   T   T   T
  0.9995674093834910  0.8569789158843937  0.5011956209845737   T   T   T
  0.1428172486137150  1.0001071551236989  0.5008267767466821   T   T   T
  0.1421726421617048  0.1424687159651896  0.5003201697752796   T   T   T
  0.1410941930005815  0.2845397049396869  0.4997456977501455   T   T   T
  0.1410959654528208  0.4278995891376918  0.4998520702269881   T   T   T
  0.1421801355394847  0.5710274143823202  0.5004678060720185   T   T   T
  0.1428441651800065  0.7140529357141601  0.5008935839522218   T   T   T
  0.1428728567482306  0.8571037331578000  0.5009823689149470   T   T   T
  0.2859686278924831  1.0001411531193083  0.5005502916964037   T   T   T
  0.2860638024326703  0.1431315774624890  0.4998990418271027   T   T   T
  0.2851724505814267  0.2866095263097661  0.4983615757431263   T   T   T
  0.2824245269138678  0.4268812979949964  0.4973087530401611   T   T   T
  0.2851639880781725  0.5699021133641742  0.4985676135684538   T   T   T
  0.2860730588784932  0.7142571449596627  0.4999694232894655   T   T   T
  0.2859747065675360  0.8571763102346567  0.5005130428706365   T   T   T
  0.4288158161154298  1.0000732870984541  0.5003591169611936   T   T   T
  0.4294448552905711  0.1436871239274402  0.5000738691283155   T   T   T
  0.4279858397432810  0.2837432334951023  0.4992825277237555   T   T   T
  0.4280103942419152  0.7155643722606284  0.4993382600157427   T   T   T
  0.4294441808911532  0.8570766453318740  0.5000554392369222   T   T   T
  0.5713178970898138  0.9999275888380111  0.5001378712801448   T   T   T
  0.5713354486891346  0.1427634967110861  0.5001954151082477   T   T   T
  0.5747400139596128  0.2888444840006532  0.4993956854105376   T   T   T
  0.5747366236237725  0.8572684602536661  0.4992981741793710   T   T   T
  0.7141292058163516  0.0003128434592619  0.4998755498509042   T   T   T
  0.7140003566877928  0.1426792738969901  0.5003697930955993   T   T   T
  0.7141391024985845  0.2852015714954874  0.4999801776135625   T   T   T
  0.7100169719443311  0.4245042435046220  0.4979481622321104   T   T   T
  0.7158767981631522  0.5717255302044125  0.4897160709907402   T   T   T
  0.7158582983633518  0.7154684998408973  0.4897146381584149   T   T   T
  0.7100009710219936  0.8568760609139298  0.4978539672456472   T   T   T
  0.8562087575875456  0.9993875092296696  0.5001711528883168   T   T   T
  0.8564815188599258  0.1425361309325455  0.5003150925930576   T   T   T
  0.8565005147811866  0.2853352626842661  0.5004010797971318   T   T   T
  0.8562417630229303  0.4281947302398776  0.5002934490470481   T   T   T
  0.8557717350708799  0.5704882422428315  0.4998698351117924   T   T   T
  0.8568324366076931  0.7140790975378316  0.4987851284441884   T   T   T
  0.8557288101657574  0.8565908010727520  0.4998762163157000   T   T   T
  0.0468783988584373  0.0946163070096631  0.5008492974793818   T   T   T
  0.0459641041177356  0.2369662101270549  0.5003360837447595   T   T   T
  0.0459637516866411  0.3803337882901740  0.5004274436697658   T   T   T
  0.0469018385717339  0.5235898853242097  0.5009213242682204   T   T   T
  0.0472599711048076  0.6665205037656809  0.5012983990972021   T   T   T
  0.0471996983378254  0.8092677947225221  0.5011890197994963   T   T   T
  0.0472393227512893  0.9520772265294771  0.5012392086329737   T   T   T
  0.1904125523765747  0.0951091857213951  0.5003309902292099   T   T   T
  0.1893132065517869  0.2375074720089292  0.4995536158710173   T   T   T
  0.1873678604697225  0.3793626761975977  0.4991398273655502   T   T   T
  0.1893174385246368  0.5231321049090127  0.4997558087127265   T   T   T
  0.1904303219639187  0.6666311418886870  0.5003999984002191   T   T   T
  0.1906655027897357  0.8095637264449057  0.5007960181022892   T   T   T
  0.1906670171608716  0.9524490923580404  0.5007671868438450   T   T   T
  0.3340025848313445  0.0958838531435425  0.5002228676125055   T   T   T
  0.3345560576378783  0.2386006024351038  0.4991413316317228   T   T   T
  0.3287593040032025  0.3791939753181113  0.4965416111405986   T   T   T
  0.3287246536181769  0.5209011482491336  0.4966891644841839   T   T   T
  0.3345919663375918  0.6672896326373911  0.4992529748928914   T   T   T
  0.3339924158769426  0.8094422689952069  0.5002238200146388   T   T   T
  0.3333732765642572  0.9523662143068227  0.5005095581102387   T   T   T
  0.4763600956623280  0.0952974961438567  0.5002365098699716   T   T   T
  0.4770099407417033  0.2394470122267838  0.4996937162067359   T   T   T
  0.4770096609630565  0.8088903530033391  0.4996662380282833   T   T   T
  0.4763546102528165  0.9524094151531480  0.5002242366249547   T   T   T
  0.6187091206236545  0.0950318967318683  0.5003056655629390   T   T   T
  0.6194213960512104  0.2382417713500699  0.4998561842251491   T   T   T
  0.6194247955944797  0.9525659856829901  0.4997280856731411   T   T   T
  0.7616676220574183  0.0954558948879533  0.5002944520188790   T   T   T
  0.7616562453256813  0.2375708687510726  0.5003463629919142   T   T   T
  0.7608841667588119  0.3800033622144833  0.4994880211189252   T   T   T
  0.7595105719772660  0.5228342033939619  0.4962479660899370   T   T   T
  0.7611493942970707  0.6662421457241584  0.4927021784495198   T   T   T
  0.7594705166655414  0.8080008360480853  0.4962599032650740   T   T   T
  0.7608662418745357  0.9522512065818109  0.4993742851180792   T   T   T
  0.9036905326721166  0.0943202182881135  0.5004230426167787   T   T   T
  0.9039279967511664  0.2376422328417483  0.5003793310137086   T   T   T
  0.9037084626409634  0.3807274014465570  0.5005656584394701   T   T   T
  0.9038735860998489  0.5235606769336300  0.5008763517201307   T   T   T
  0.9038134266255667  0.6659501004251615  0.5002667417394385   T   T   T
  0.9037926716028454  0.8091866156762899  0.5002423202866250   T   T   T
  0.9038352679133458  0.9516302362777812  0.5008393150784783   T   T   T
  0.4662492752602243  0.3563371774961930  0.4988704420087637   T   T   T
  0.4010501276479475  0.4187634272492682  0.4954017780311426   T   T   T
  0.4010085510992450  0.5536378692969214  0.4955075584222739   T   T   T
  0.6439445523193750  0.6810939866934010  0.4797451567084520   T   T   T
  0.6439539972098397  0.5341155515575698  0.4797687440720778   T   T   T
  0.4662839889138179  0.6812517341554515  0.4989523316459160   T   T   T
  0.5519869968153117  0.6068131905564040  0.5354268353095912   T   T   T
  0.5527814804207459  0.5180711900037712  0.5352529347245869   T   T   T
  0.6199124476014212  0.3794364440466609  0.4984698181576565   T   T   T
  0.6199038044481742  0.8118438913339466  0.4984042463181129   T   T   T
  0.5126266355233667  0.5422938684804418  0.5348879996666724   T   T   F
 
  0.00000000E+00  0.00000000E+00  0.00000000E+00
  0.00000000E+00  0.00000000E+00  0.00000000E+00
  0.00000000E+00  0.00000000E+00  0.00000000E+00
  0.00000000E+00  0.00000000E+00  0.00000000E+00
  0.00000000E+00  0.00000000E+00  0.00000000E+00
  0.00000000E+00  0.00000000E+00  0.00000000E+00
  0.00000000E+00  0.00000000E+00  0.00000000E+00
  0.00000000E+00  0.00000000E+00  0.00000000E+00
  0.00000000E+00  0.00000000E+00  0.00000000E+00
  0.00000000E+00  0.00000000E+00  0.00000000E+00
  0.00000000E+00  0.00000000E+00  0.00000000E+00
  0.00000000E+00  0.00000000E+00  0.00000000E+00
  0.00000000E+00  0.00000000E+00  0.00000000E+00
  0.00000000E+00  0.00000000E+00  0.00000000E+00
  0.00000000E+00  0.00000000E+00  0.00000000E+00
  0.00000000E+00  0.00000000E+00  0.00000000E+00
  0.00000000E+00  0.00000000E+00  0.00000000E+00
  0.00000000E+00  0.00000000E+00  0.00000000E+00
  0.00000000E+00  0.00000000E+00  0.00000000E+00
  0.00000000E+00  0.00000000E+00  0.00000000E+00
  0.00000000E+00  0.00000000E+00  0.00000000E+00
  0.00000000E+00  0.00000000E+00  0.00000000E+00
  0.00000000E+00  0.00000000E+00  0.00000000E+00
  0.00000000E+00  0.00000000E+00  0.00000000E+00
  0.00000000E+00  0.00000000E+00  0.00000000E+00
  0.00000000E+00  0.00000000E+00  0.00000000E+00
  0.00000000E+00  0.00000000E+00  0.00000000E+00
  0.00000000E+00  0.00000000E+00  0.00000000E+00
  0.00000000E+00  0.00000000E+00  0.00000000E+00
  0.00000000E+00  0.00000000E+00  0.00000000E+00
  0.00000000E+00  0.00000000E+00  0.00000000E+00
  0.00000000E+00  0.00000000E+00  0.00000000E+00
  0.00000000E+00  0.00000000E+00  0.00000000E+00
  0.00000000E+00  0.00000000E+00  0.00000000E+00
  0.00000000E+00  0.00000000E+00  0.00000000E+00
  0.00000000E+00  0.00000000E+00  0.00000000E+00
  0.00000000E+00  0.00000000E+00  0.00000000E+00
  0.00000000E+00  0.00000000E+00  0.00000000E+00
  0.00000000E+00  0.00000000E+00  0.00000000E+00
  0.00000000E+00  0.00000000E+00  0.00000000E+00
  0.00000000E+00  0.00000000E+00  0.00000000E+00
  0.00000000E+00  0.00000000E+00  0.00000000E+00
  0.00000000E+00  0.00000000E+00  0.00000000E+00
  0.00000000E+00  0.00000000E+00  0.00000000E+00
  0.00000000E+00  0.00000000E+00  0.00000000E+00
  0.00000000E+00  0.00000000E+00  0.00000000E+00
  0.00000000E+00  0.00000000E+00  0.00000000E+00
  0.00000000E+00  0.00000000E+00  0.00000000E+00
  0.00000000E+00  0.00000000E+00  0.00000000E+00
  0.00000000E+00  0.00000000E+00  0.00000000E+00
  0.00000000E+00  0.00000000E+00  0.00000000E+00
  0.00000000E+00  0.00000000E+00  0.00000000E+00
  0.00000000E+00  0.00000000E+00  0.00000000E+00
  0.00000000E+00  0.00000000E+00  0.00000000E+00
  0.00000000E+00  0.00000000E+00  0.00000000E+00
  0.00000000E+00  0.00000000E+00  0.00000000E+00
  0.00000000E+00  0.00000000E+00  0.00000000E+00
  0.00000000E+00  0.00000000E+00  0.00000000E+00
  0.00000000E+00  0.00000000E+00  0.00000000E+00
  0.00000000E+00  0.00000000E+00  0.00000000E+00
  0.00000000E+00  0.00000000E+00  0.00000000E+00
  0.00000000E+00  0.00000000E+00  0.00000000E+00
  0.00000000E+00  0.00000000E+00  0.00000000E+00
  0.00000000E+00  0.00000000E+00  0.00000000E+00
  0.00000000E+00  0.00000000E+00  0.00000000E+00
  0.00000000E+00  0.00000000E+00  0.00000000E+00
  0.00000000E+00  0.00000000E+00  0.00000000E+00
  0.00000000E+00  0.00000000E+00  0.00000000E+00
  0.00000000E+00  0.00000000E+00  0.00000000E+00
  0.00000000E+00  0.00000000E+00  0.00000000E+00
  0.00000000E+00  0.00000000E+00  0.00000000E+00
  0.00000000E+00  0.00000000E+00  0.00000000E+00
  0.00000000E+00  0.00000000E+00  0.00000000E+00
  0.00000000E+00  0.00000000E+00  0.00000000E+00
  0.00000000E+00  0.00000000E+00  0.00000000E+00
  0.00000000E+00  0.00000000E+00  0.00000000E+00
  0.00000000E+00  0.00000000E+00  0.00000000E+00
  0.00000000E+00  0.00000000E+00  0.00000000E+00
  0.00000000E+00  0.00000000E+00  0.00000000E+00
  0.00000000E+00  0.00000000E+00  0.00000000E+00
  0.00000000E+00  0.00000000E+00  0.00000000E+00
  0.00000000E+00  0.00000000E+00  0.00000000E+00
  0.00000000E+00  0.00000000E+00  0.00000000E+00
  0.00000000E+00  0.00000000E+00  0.00000000E+00
  0.00000000E+00  0.00000000E+00  0.00000000E+00
  0.00000000E+00  0.00000000E+00  0.00000000E+00
  0.00000000E+00  0.00000000E+00  0.00000000E+00
  0.00000000E+00  0.00000000E+00  0.00000000E+00
  0.00000000E+00  0.00000000E+00  0.00000000E+00
  0.00000000E+00  0.00000000E+00  0.00000000E+00
  0.00000000E+00  0.00000000E+00  0.00000000E+00
  0.00000000E+00  0.00000000E+00  0.00000000E+00
  0.00000000E+00  0.00000000E+00  0.00000000E+00
  0.00000000E+00  0.00000000E+00  0.00000000E+00
  0.00000000E+00  0.00000000E+00  0.00000000E+00
  0.00000000E+00  0.00000000E+00  0.00000000E+00
  0.00000000E+00  0.00000000E+00  0.00000000E+00
