C4                                      
    1.000000000000000     
    17.2710380553999983    0.0000000000000000    0.0000000000000000
    -8.6355190276999991   14.9571577057000002    0.0000000000000000
     0.0000000000000000    0.0000000000000000   15.0000000000000000
   C    H    F 
    88     4     4
Direct
  0.0011833093503879  0.0007349157330084  0.2500005631538813
 -0.0007465609242490  0.1424209637879863  0.2500005495872348
 -0.0016973795916907  0.2849160359511622  0.2500007572748287
 -0.0011078766428787  0.4282221162002249  0.2500008635560238
 -0.0006842030815406  0.5715694383015192  0.2500008025888791
  0.0016580254892420  0.7148920783796255  0.2500005384034914
  0.0026475498870791  0.8586354440319413  0.2500005411280902
  0.1432140888133390 -0.0005252882844725  0.2500005917270757
  0.1421119537963657  0.1423667498566207  0.2500005595468952
  0.1394698324316731  0.2835800441025134  0.2500007507488625
  0.1393926754916524  0.4273574832947042  0.2500007351356142
  0.1416340448089424  0.5707364254351217  0.2500006248390460
  0.1432519132451614  0.7139995339728683  0.2500007263724021
  0.1438995935248834  0.8569485969187574  0.2500004823080869
  0.2857476530934183 -0.0013015388508567  0.2500006200331989
  0.2833725758522610  0.1396357931073661  0.2500002761018358
  0.2836496179391205  0.2856101281093247  0.2500001400801891
  0.2776601827040071  0.4244583476322537  0.2499994474748581
  0.2840668818422703  0.5687304695422101  0.2499998038497646
  0.2851390588079849  0.7136574174157391  0.2500003778654084
  0.2859781981626419  0.8565053037367087  0.2500006477424311
  0.4286617085451305 -0.0008816818640090  0.2499993494568395
  0.4279500517590878  0.1414215231112552  0.2500001391727975
  0.4211435324067418  0.2759851171292855  0.2500025238443998
  0.4250524940967590  0.7162284743229478  0.2500011661595026
  0.4286389523846516  0.8565335618912751  0.2500001512713073
  0.5715313550742823 -0.0008376924958304  0.2500005108788617
  0.5713367951808506  0.1410317882064345  0.2500001339973973
  0.5720756364619174  0.2828764856846950  0.2500009624315464
  0.5733967098054880  0.8570637418927525  0.2500004711422881
  0.7148063567237862  0.0003389583404590  0.2500005745168192
  0.7142950079031940  0.1423123302414479  0.2499995022280445
  0.7147703294314145  0.2848171313557334  0.2499993758407165
  0.7176448526863664  0.4277446908299727  0.2500012911993703
  0.7200892607966317  0.5799381748968070  0.2499955469836568
  0.7218188139140319  0.7203630511946846  0.2500011674453410
  0.7167803202395460  0.8602308807154089  0.2500008435381917
  0.8583820010468449  0.0012125196571401  0.2500005401239786
  0.8567488995338983  0.1427009081007820  0.2500005116569803
  0.8565893656680005  0.2852435771683446  0.2500007244781147
  0.8581354689233853  0.4287075927107613  0.2499998792664453
  0.8566130001929573  0.5727308831070353  0.2499982083703939
  0.8624875939254034  0.7182413057190103  0.2500018744425571
  0.8605769514044107  0.8597239482640568  0.2500007595912684
  0.0475578503772740  0.0954378173241119  0.2500005414186358
  0.0451468165132751  0.2366987423251578  0.2500009029008780
  0.0450187648613110  0.3799525270892515  0.2500011286574842
  0.0465388219517482  0.5234731052376227  0.2500007637704874
  0.0481714540846093  0.6667614177252076  0.2500001662841816
  0.0491306839073702  0.8100042478919915  0.2500005024853345
  0.0487839173318868  0.9529227789390012  0.2500004848935633
  0.1890981045887654  0.0936314794723174  0.2500006188614333
  0.1881814023339058  0.2370661429443437  0.2500006197157404
  0.1841198437951247  0.3778469295594812  0.2499998990869103
  0.1882193470196534  0.5224856738245751  0.2500004952776781
  0.1899836633496787  0.6661540604742581  0.2500006628364325
  0.1911264153370865  0.8091970635431769  0.2500006633805962
  0.1909505006843573  0.9517634512581931  0.2500005567985759
  0.3327248231976733  0.0936918664563832  0.2500007924362646
  0.3290133034669074  0.2336006979009847  0.2499997326372169
  0.3250265014367380  0.3786906285348438  0.2499994915620570
  0.3257670564016955  0.5177718931620054  0.2499995299244927
  0.3322047515752320  0.6655834418035177  0.2500000339159970
  0.3334656453590992  0.8087751766788273  0.2500006349055491
  0.3334090650802672  0.9513496559807435  0.2499981058036717
  0.4761306242348409  0.0940847713673869  0.2500001297467456
  0.4753841768791482  0.2367220893359186  0.2500006343178236
  0.4767292583728047  0.8093866563088813  0.2500002618433355
  0.4764134713984267  0.9517841462508592  0.2500002718239371
  0.6190137957892604  0.0940380314917249  0.2500001696693817
  0.6195599821415565  0.2358804393925370  0.2500010032974524
  0.6263245863381193  0.3750628662356464  0.2499972596074102
  0.6243247826428102  0.8145853522316358  0.2500006816462907
  0.6197115469937735  0.9522081598941945  0.2500005788265290
  0.7619858210693664  0.0953266089524452  0.2500006520259833
  0.7618649037318069  0.2372770870984153  0.2500000098880772
  0.7640927152544136  0.3802800072612283  0.2500006731689891
  0.7595870935845099  0.5252400774202031  0.2499987053527748
  0.7688058296345742  0.6735263368517572  0.2500011083101377
  0.7655972043369995  0.8122075176331680  0.2500010580183358
  0.7637081827904163  0.9543953208138628  0.2500006405241654
  0.9046502630188077  0.0953420109665379  0.2500003922059860
  0.9036849595021023  0.2375432435866400  0.2500007304143403
  0.9043709124539295  0.3806766780279747  0.2500002896352264
  0.9039966776459287  0.5243922535465928  0.2500004765128497
  0.9067123635896460  0.6679232429254489  0.2500007601030106
  0.9083078510694464  0.8124279222710113  0.2500010723340402
  0.9066771934870832  0.9540519712166692  0.2500005788373314
  0.3959483162714574  0.4231418733740876  0.2499991361714337
  0.3973165386612012  0.5470544270944688  0.2499993392802850
  0.6497052467368707  0.6823156785285763  0.2500005483415360
  0.5913760694977354  0.7430495323987518  0.2500005928212976
  0.4549135092634178  0.3640625620544161  0.2500150771786092
  0.6321339818887286  0.5575201542942561  0.2499809227372809
  0.5886634126695656  0.4242923555340837  0.2499768482999752
  0.4698749749032238  0.6699723848837438  0.2499964619513327
 
  0.00000000E+00  0.00000000E+00  0.00000000E+00
  0.00000000E+00  0.00000000E+00  0.00000000E+00
  0.00000000E+00  0.00000000E+00  0.00000000E+00
  0.00000000E+00  0.00000000E+00  0.00000000E+00
  0.00000000E+00  0.00000000E+00  0.00000000E+00
  0.00000000E+00  0.00000000E+00  0.00000000E+00
  0.00000000E+00  0.00000000E+00  0.00000000E+00
  0.00000000E+00  0.00000000E+00  0.00000000E+00
  0.00000000E+00  0.00000000E+00  0.00000000E+00
  0.00000000E+00  0.00000000E+00  0.00000000E+00
  0.00000000E+00  0.00000000E+00  0.00000000E+00
  0.00000000E+00  0.00000000E+00  0.00000000E+00
  0.00000000E+00  0.00000000E+00  0.00000000E+00
  0.00000000E+00  0.00000000E+00  0.00000000E+00
  0.00000000E+00  0.00000000E+00  0.00000000E+00
  0.00000000E+00  0.00000000E+00  0.00000000E+00
  0.00000000E+00  0.00000000E+00  0.00000000E+00
  0.00000000E+00  0.00000000E+00  0.00000000E+00
  0.00000000E+00  0.00000000E+00  0.00000000E+00
  0.00000000E+00  0.00000000E+00  0.00000000E+00
  0.00000000E+00  0.00000000E+00  0.00000000E+00
  0.00000000E+00  0.00000000E+00  0.00000000E+00
  0.00000000E+00  0.00000000E+00  0.00000000E+00
  0.00000000E+00  0.00000000E+00  0.00000000E+00
  0.00000000E+00  0.00000000E+00  0.00000000E+00
  0.00000000E+00  0.00000000E+00  0.00000000E+00
  0.00000000E+00  0.00000000E+00  0.00000000E+00
  0.00000000E+00  0.00000000E+00  0.00000000E+00
  0.00000000E+00  0.00000000E+00  0.00000000E+00
  0.00000000E+00  0.00000000E+00  0.00000000E+00
  0.00000000E+00  0.00000000E+00  0.00000000E+00
  0.00000000E+00  0.00000000E+00  0.00000000E+00
  0.00000000E+00  0.00000000E+00  0.00000000E+00
  0.00000000E+00  0.00000000E+00  0.00000000E+00
  0.00000000E+00  0.00000000E+00  0.00000000E+00
  0.00000000E+00  0.00000000E+00  0.00000000E+00
  0.00000000E+00  0.00000000E+00  0.00000000E+00
  0.00000000E+00  0.00000000E+00  0.00000000E+00
  0.00000000E+00  0.00000000E+00  0.00000000E+00
  0.00000000E+00  0.00000000E+00  0.00000000E+00
  0.00000000E+00  0.00000000E+00  0.00000000E+00
  0.00000000E+00  0.00000000E+00  0.00000000E+00
  0.00000000E+00  0.00000000E+00  0.00000000E+00
  0.00000000E+00  0.00000000E+00  0.00000000E+00
  0.00000000E+00  0.00000000E+00  0.00000000E+00
  0.00000000E+00  0.00000000E+00  0.00000000E+00
  0.00000000E+00  0.00000000E+00  0.00000000E+00
  0.00000000E+00  0.00000000E+00  0.00000000E+00
  0.00000000E+00  0.00000000E+00  0.00000000E+00
  0.00000000E+00  0.00000000E+00  0.00000000E+00
  0.00000000E+00  0.00000000E+00  0.00000000E+00
  0.00000000E+00  0.00000000E+00  0.00000000E+00
  0.00000000E+00  0.00000000E+00  0.00000000E+00
  0.00000000E+00  0.00000000E+00  0.00000000E+00
  0.00000000E+00  0.00000000E+00  0.00000000E+00
  0.00000000E+00  0.00000000E+00  0.00000000E+00
  0.00000000E+00  0.00000000E+00  0.00000000E+00
  0.00000000E+00  0.00000000E+00  0.00000000E+00
  0.00000000E+00  0.00000000E+00  0.00000000E+00
  0.00000000E+00  0.00000000E+00  0.00000000E+00
  0.00000000E+00  0.00000000E+00  0.00000000E+00
  0.00000000E+00  0.00000000E+00  0.00000000E+00
  0.00000000E+00  0.00000000E+00  0.00000000E+00
  0.00000000E+00  0.00000000E+00  0.00000000E+00
  0.00000000E+00  0.00000000E+00  0.00000000E+00
  0.00000000E+00  0.00000000E+00  0.00000000E+00
  0.00000000E+00  0.00000000E+00  0.00000000E+00
  0.00000000E+00  0.00000000E+00  0.00000000E+00
  0.00000000E+00  0.00000000E+00  0.00000000E+00
  0.00000000E+00  0.00000000E+00  0.00000000E+00
  0.00000000E+00  0.00000000E+00  0.00000000E+00
  0.00000000E+00  0.00000000E+00  0.00000000E+00
  0.00000000E+00  0.00000000E+00  0.00000000E+00
  0.00000000E+00  0.00000000E+00  0.00000000E+00
  0.00000000E+00  0.00000000E+00  0.00000000E+00
  0.00000000E+00  0.00000000E+00  0.00000000E+00
  0.00000000E+00  0.00000000E+00  0.00000000E+00
  0.00000000E+00  0.00000000E+00  0.00000000E+00
  0.00000000E+00  0.00000000E+00  0.00000000E+00
  0.00000000E+00  0.00000000E+00  0.00000000E+00
  0.00000000E+00  0.00000000E+00  0.00000000E+00
  0.00000000E+00  0.00000000E+00  0.00000000E+00
  0.00000000E+00  0.00000000E+00  0.00000000E+00
  0.00000000E+00  0.00000000E+00  0.00000000E+00
  0.00000000E+00  0.00000000E+00  0.00000000E+00
  0.00000000E+00  0.00000000E+00  0.00000000E+00
  0.00000000E+00  0.00000000E+00  0.00000000E+00
  0.00000000E+00  0.00000000E+00  0.00000000E+00
  0.00000000E+00  0.00000000E+00  0.00000000E+00
  0.00000000E+00  0.00000000E+00  0.00000000E+00
  0.00000000E+00  0.00000000E+00  0.00000000E+00
  0.00000000E+00  0.00000000E+00  0.00000000E+00
  0.00000000E+00  0.00000000E+00  0.00000000E+00
  0.00000000E+00  0.00000000E+00  0.00000000E+00
  0.00000000E+00  0.00000000E+00  0.00000000E+00
  0.00000000E+00  0.00000000E+00  0.00000000E+00
