C    N    H    O                        
   1.00000000000000     
    17.2710380553999983    0.0000000000000000    0.0000000000000000
    -8.6355190276999991   14.9571577057000002    0.0000000000000000
     0.0000000000000000    0.0000000000000000   15.0000000000000000
  C/253f7b50bb8d  N/e053789ff3a6  H/030f79b5d3ab  O/818f92134a0a
              80               8               2               1
Selective dynamics
Direct
 -0.0003144123016196  0.0001492704848036  0.5011630503656777   T   T   T
  0.9989536569379002  0.1425206498228038  0.5009474496622119   T   T   T
  0.9987553396145094  0.2855328396472998  0.5008236745378617   T   T   T
  0.9990114040712074  0.4287379762936268  0.5007197337834789   T   T   T
 -0.0002081854988248  0.5718142135821133  0.5005729689369304   T   T   T
  0.0013047059588057  0.7151676236353309  0.5005514448687649   T   T   T
  0.0012905282978567  0.8583940287475234  0.5007759711703685   T   T   T
  0.1441244996988227  0.0019827643902664  0.5008106487250722   T   T   T
  0.1434074386353413  0.1445221729785517  0.5011044435519604   T   T   T
  0.1418843185442468  0.2857573803733724  0.5016300461158857   T   T   T
  0.1419430735252461  0.4284614558257270  0.5019340294291160   T   T   T
  0.1435639906326211  0.5712134017084045  0.5017512489186605   T   T   T
  0.1441725932781103  0.7144311693218404  0.5010879142625351   T   T   T
  0.1441654521022084  0.8582135393437715  0.5006592626925731   T   T   T
  0.2867141223975220  0.0014838741110715  0.5012308103068859   T   T   T
  0.2873422489243931  0.1462743537028274  0.5018586971368715   T   T   T
  0.2881227994254347  0.2935044873636179  0.5039430990589404   T   T   T
  0.2848045535593071  0.4285405923839233  0.5054661087825920   T   T   T
  0.2884286637881991  0.5668708228168925  0.5047717874385743   T   T   T
  0.2874293595534622  0.7134053691292842  0.5028425986458376   T   T   T
  0.2867440645698174  0.8575628952660482  0.5016776975644393   T   T   T
  0.4292825149014364  0.0008469556726865  0.5021621041213725   T   T   T
  0.4293363485574156  0.1457103764668116  0.5019966586032578   T   T   T
  0.4293527142038306  0.8560679904400353  0.5032586535491985   T   T   T
  0.5711695647210121 -0.0004164894505396  0.5028515675512726   T   T   T
  0.5711573057775040  0.1440086071197940  0.5020268278401170   T   T   T
  0.5734310055360734  0.2917053049819558  0.5025179596157462   T   T   T
  0.5734387778143882  0.8541333070676982  0.5041907119536890   T   T   T
  0.7132408726256054  0.9984464101844975  0.5027119385120818   T   T   T
  0.7135638297324116  0.1429804096270816  0.5017118271957304   T   T   T
  0.7132425321094698  0.2871629379399611  0.5014458967645145   T   T   T
  0.7088891869740647  0.4281700620191012  0.5027274851383658   T   T   T
  0.7088453322139593  0.8530758226745253  0.5037121548498517   T   T   T
  0.8557820798930869  0.9987011970542237  0.5020165111314826   T   T   T
  0.8558470986386055  0.1422997354938196  0.5012884692268927   T   T   T
  0.8558730550568505  0.2858824417058002  0.5007963322137674   T   T   T
  0.8558131076150292  0.4293915145021598  0.5006916662356228   T   T   T
  0.8561910498113039  0.5725568599320158  0.5011439970663488   T   T   T
  0.8588239586167238  0.7155650121208195  0.5018211427909779   T   T   T
  0.8561023882876566  0.8558390437025440  0.5023426676774808   T   T   T
  0.0476053539187438  0.0957747945288005  0.5009236513819471   T   T   T
  0.0462232910958548  0.2376829267423633  0.5009494391211303   T   T   T
  0.0462572626175838  0.3808442693328568  0.5010094663651645   T   T   T
  0.0477406791688994  0.5241389761887861  0.5008855303412806   T   T   T
  0.0485142607786289  0.6672335845227796  0.5006184449304182   T   T   T
  0.0487534352298337  0.8104989998743838  0.5005525114696162   T   T   T
  0.0484677528210596  0.9535029476232179  0.5008142836902308   T   T   T
  0.1916564309604281  0.0973679944732595  0.5012131754407019   T   T   T
  0.1911626028189841  0.2400439818995601  0.5018174610404419   T   T   T
  0.1888899929483515  0.3805786234818433  0.5025396684489402   T   T   T
  0.1913478218405272  0.5234462614367461  0.5026519005308960   T   T   T
  0.1917473341629353  0.6666152211094114  0.5018963294059302   T   T   T
  0.1916693612860535  0.8101581444949666  0.5010515117322113   T   T   T
  0.1916339756116342  0.9537595890694203  0.5008137191407023   T   T   T
  0.3342709340857396  0.0977269825782157  0.5016144644124956   T   T   T
  0.3385174873168935  0.2429762468203641  0.5030429128078093   T   T   T
  0.3387525486721102  0.6679542126313597  0.5043191389326089   T   T   T
  0.3342957152424985  0.8088928238020895  0.5025885380399461   T   T   T
  0.3339387964819768  0.9531418118403776  0.5016537304095874   T   T   T
  0.4763407180374568  0.0966182423809992  0.5020348459574175   T   T   T
  0.4741634706614171  0.2421196958854584  0.5024369393968895   T   T   T
  0.4741299101541773  0.8044593926444193  0.5042585135116110   T   T   T
  0.4763470900923970  0.9521533475842243  0.5027911824574610   T   T   T
  0.6182366469780580  0.0953260852050285  0.5021774950294514   T   T   T
  0.6182048700354364  0.2400759099934682  0.5018910723083730   T   T   T
  0.6182024287647074  0.9505376073152385  0.5032896347022802   T   T   T
  0.7607811685668898  0.0946303215809173  0.5018855182466567   T   T   T
  0.7607982532778285  0.2385136830430301  0.5012061128536905   T   T   T
  0.7601273799245094  0.3826443264156528  0.5013757148007066   T   T   T
  0.7591574425174145  0.5290215468464387  0.5030072107121719   T   T   T
  0.7630492923388479  0.6676424034597955  0.5036810316371767   T   T   T
  0.7590156801811162  0.8022975633095594  0.5035071495322391   T   T   T
  0.7601193084953932  0.9498304791709913  0.5028273216331351   T   T   T
  0.9033102979409389  0.0940911628161080  0.5013444639118262   T   T   T
  0.9033558479078457  0.2378333363394040  0.5008291333189341   T   T   T
  0.9033513513779017  0.3815357231141639  0.5005812895812589   T   T   T
  0.9039657233079071  0.5247656899144773  0.5005757688591898   T   T   T
  0.9056532215364060  0.6675847019150757  0.5010355952701055   T   T   T
  0.9056206988813251  0.8103373522778256  0.5015280581898244   T   T   T
  0.9038692780442753  0.9514031737740105  0.5018248746442227   T   T   T
  0.4284336974618023  0.2869624342258070  0.5029559623309402   T   T   T
  0.4285280992867312  0.7140204806058550  0.5050441644533558   T   T   T
  0.7161897610696583  0.5758057653597165  0.5050692097716060   T   T   T
  0.7159719038350788  0.7124770445485905  0.5043009113602837   T   T   T
  0.3312899137868616  0.3830601502371968  0.5071597451780039   T   T   T
  0.3315142074833981  0.5203652165491343  0.5070814857990215   T   T   T
  0.6190230632674215  0.3821610292005118  0.5034379085462896   T   T   T
  0.6190488784184244  0.8093055992829344  0.5044526199485720   T   T   T
  0.5016460241257322  0.4581730027554750  0.4664035370420674   T   T   T
  0.5656776139173528  0.5601418330374420  0.4648205075510962   T   T   T
  0.5193202500661215  0.5113026456792558  0.4302240609999970   T   T   F
 
  0.00000000E+00  0.00000000E+00  0.00000000E+00
  0.00000000E+00  0.00000000E+00  0.00000000E+00
  0.00000000E+00  0.00000000E+00  0.00000000E+00
  0.00000000E+00  0.00000000E+00  0.00000000E+00
  0.00000000E+00  0.00000000E+00  0.00000000E+00
  0.00000000E+00  0.00000000E+00  0.00000000E+00
  0.00000000E+00  0.00000000E+00  0.00000000E+00
  0.00000000E+00  0.00000000E+00  0.00000000E+00
  0.00000000E+00  0.00000000E+00  0.00000000E+00
  0.00000000E+00  0.00000000E+00  0.00000000E+00
  0.00000000E+00  0.00000000E+00  0.00000000E+00
  0.00000000E+00  0.00000000E+00  0.00000000E+00
  0.00000000E+00  0.00000000E+00  0.00000000E+00
  0.00000000E+00  0.00000000E+00  0.00000000E+00
  0.00000000E+00  0.00000000E+00  0.00000000E+00
  0.00000000E+00  0.00000000E+00  0.00000000E+00
  0.00000000E+00  0.00000000E+00  0.00000000E+00
  0.00000000E+00  0.00000000E+00  0.00000000E+00
  0.00000000E+00  0.00000000E+00  0.00000000E+00
  0.00000000E+00  0.00000000E+00  0.00000000E+00
  0.00000000E+00  0.00000000E+00  0.00000000E+00
  0.00000000E+00  0.00000000E+00  0.00000000E+00
  0.00000000E+00  0.00000000E+00  0.00000000E+00
  0.00000000E+00  0.00000000E+00  0.00000000E+00
  0.00000000E+00  0.00000000E+00  0.00000000E+00
  0.00000000E+00  0.00000000E+00  0.00000000E+00
  0.00000000E+00  0.00000000E+00  0.00000000E+00
  0.00000000E+00  0.00000000E+00  0.00000000E+00
  0.00000000E+00  0.00000000E+00  0.00000000E+00
  0.00000000E+00  0.00000000E+00  0.00000000E+00
  0.00000000E+00  0.00000000E+00  0.00000000E+00
  0.00000000E+00  0.00000000E+00  0.00000000E+00
  0.00000000E+00  0.00000000E+00  0.00000000E+00
  0.00000000E+00  0.00000000E+00  0.00000000E+00
  0.00000000E+00  0.00000000E+00  0.00000000E+00
  0.00000000E+00  0.00000000E+00  0.00000000E+00
  0.00000000E+00  0.00000000E+00  0.00000000E+00
  0.00000000E+00  0.00000000E+00  0.00000000E+00
  0.00000000E+00  0.00000000E+00  0.00000000E+00
  0.00000000E+00  0.00000000E+00  0.00000000E+00
  0.00000000E+00  0.00000000E+00  0.00000000E+00
  0.00000000E+00  0.00000000E+00  0.00000000E+00
  0.00000000E+00  0.00000000E+00  0.00000000E+00
  0.00000000E+00  0.00000000E+00  0.00000000E+00
  0.00000000E+00  0.00000000E+00  0.00000000E+00
  0.00000000E+00  0.00000000E+00  0.00000000E+00
  0.00000000E+00  0.00000000E+00  0.00000000E+00
  0.00000000E+00  0.00000000E+00  0.00000000E+00
  0.00000000E+00  0.00000000E+00  0.00000000E+00
  0.00000000E+00  0.00000000E+00  0.00000000E+00
  0.00000000E+00  0.00000000E+00  0.00000000E+00
  0.00000000E+00  0.00000000E+00  0.00000000E+00
  0.00000000E+00  0.00000000E+00  0.00000000E+00
  0.00000000E+00  0.00000000E+00  0.00000000E+00
  0.00000000E+00  0.00000000E+00  0.00000000E+00
  0.00000000E+00  0.00000000E+00  0.00000000E+00
  0.00000000E+00  0.00000000E+00  0.00000000E+00
  0.00000000E+00  0.00000000E+00  0.00000000E+00
  0.00000000E+00  0.00000000E+00  0.00000000E+00
  0.00000000E+00  0.00000000E+00  0.00000000E+00
  0.00000000E+00  0.00000000E+00  0.00000000E+00
  0.00000000E+00  0.00000000E+00  0.00000000E+00
  0.00000000E+00  0.00000000E+00  0.00000000E+00
  0.00000000E+00  0.00000000E+00  0.00000000E+00
  0.00000000E+00  0.00000000E+00  0.00000000E+00
  0.00000000E+00  0.00000000E+00  0.00000000E+00
  0.00000000E+00  0.00000000E+00  0.00000000E+00
  0.00000000E+00  0.00000000E+00  0.00000000E+00
  0.00000000E+00  0.00000000E+00  0.00000000E+00
  0.00000000E+00  0.00000000E+00  0.00000000E+00
  0.00000000E+00  0.00000000E+00  0.00000000E+00
  0.00000000E+00  0.00000000E+00  0.00000000E+00
  0.00000000E+00  0.00000000E+00  0.00000000E+00
  0.00000000E+00  0.00000000E+00  0.00000000E+00
  0.00000000E+00  0.00000000E+00  0.00000000E+00
  0.00000000E+00  0.00000000E+00  0.00000000E+00
  0.00000000E+00  0.00000000E+00  0.00000000E+00
  0.00000000E+00  0.00000000E+00  0.00000000E+00
  0.00000000E+00  0.00000000E+00  0.00000000E+00
  0.00000000E+00  0.00000000E+00  0.00000000E+00
  0.00000000E+00  0.00000000E+00  0.00000000E+00
  0.00000000E+00  0.00000000E+00  0.00000000E+00
  0.00000000E+00  0.00000000E+00  0.00000000E+00
  0.00000000E+00  0.00000000E+00  0.00000000E+00
  0.00000000E+00  0.00000000E+00  0.00000000E+00
  0.00000000E+00  0.00000000E+00  0.00000000E+00
  0.00000000E+00  0.00000000E+00  0.00000000E+00
  0.00000000E+00  0.00000000E+00  0.00000000E+00
  0.00000000E+00  0.00000000E+00  0.00000000E+00
  0.00000000E+00  0.00000000E+00  0.00000000E+00
  0.00000000E+00  0.00000000E+00  0.00000000E+00
