C4                                      
    1.000000000000000     
    17.2710380553999983    0.0000000000000000    0.0000000000000000
    -8.6355190276999991   14.9571577057000002    0.0000000000000000
     0.0000000000000000    0.0000000000000000   15.0000000000000000
   C    H    N 
    84     4     4
Direct
 -0.0001380914926179 -0.0000777081874351  0.2499999675727013
 -0.0011454032338341  0.1421858310000700  0.2499999588733571
 -0.0016595206864001  0.2849340060682877  0.2499999519933378
 -0.0008312240174151  0.4283123547328727  0.2499999351188894
  0.0001497852062018  0.5716038468542208  0.2499999816015252
  0.0015132370900619  0.7150212853332313  0.2500000091632774
  0.0017229756698613  0.8582263824023803  0.2499999351162253
  0.1437510968761163  0.0007927422310832  0.2500001487245666
  0.1426446517292841  0.1434291270604077  0.2500001583035549
  0.1405983764462271  0.2847825866151209  0.2499999690608512
  0.1409874910565392  0.4270915651762726  0.2499999816643573
  0.1432291460984060  0.5705100426580437  0.2499999795252882
  0.1442509112492156  0.7139240513192359  0.2500000281254186
  0.1443511398300252  0.8574356206942763  0.2499999877356366
  0.2863454161705740  0.0002801172420778  0.2499999769751561
  0.2856672971864983  0.1444834583642399  0.2500001468989867
  0.2850487559972945  0.2913811577407128  0.2499999994030393
  0.2837222849999468  0.4271398742746171  0.2500000197635021
  0.2860613988151764  0.5647065669104837  0.2500000225133986
  0.2871490283205573  0.7119350131022096  0.2500000132684982
  0.2869874624298765  0.8563966588109434  0.2500000120723699
  0.4290811600139147 -0.0003256355778235  0.2499999860786998
  0.4283793213258708  0.1435135432485100  0.2499999457436805
  0.4264036170883079  0.2844990669558429  0.2499999690917325
  0.4291046097980838  0.7127048157823090  0.2499999992139707
  0.4299554841348860  0.8555055604759428  0.2499999982337895
  0.5714124925153374 -0.0006802315932740  0.2500000142914111
  0.5711283026126568  0.1427989704717631  0.2500000107377536
  0.5718105177264687  0.2869227033840750  0.2499999832069799
  0.5751854796573617  0.8560404959248958  0.2499999924511409
  0.7142315115708667 -0.0006271514133555  0.2499999979669473
  0.7138231373174043  0.1427755217234151  0.2500000336942341
  0.7137524446096549  0.2864058839429718  0.2500000375395166
  0.7133951403474492  0.4294723543737766  0.2500000091387858
  0.7173516381602142  0.5768158531289246  0.2499999805264369
  0.7100801365795633  0.8547718588076064  0.2499999693902731
  0.8563236652184040 -0.0008879383670492  0.2499999785084517
  0.8562228984249565  0.1423588753832626  0.2499999886314956
  0.8561461255348475  0.2855710108496498  0.2499999967850317
  0.8567304525002074  0.4291040791850939  0.2500000056962630
  0.8574043056114227  0.5729765760905546  0.2499999964018988
  0.8593754024990147  0.7165615081138634  0.2499999423432062
  0.8569712378382519  0.8568041510393589  0.2499999423981286
  0.0472965259825482  0.0952648988874808  0.2499999704766921
  0.0455040526840398  0.2370598628109006  0.2499999702856391
  0.0457684721683374  0.3799574114986790  0.2499999353318550
  0.0477181066245730  0.5236638315224327  0.2499999485469087
  0.0487188443823729  0.6669709753763989  0.2500000149694349
  0.0491138002012589  0.8102152441492568  0.2499999950091396
  0.0484693656728475  0.9530334923044238  0.2499999514211966
  0.1905701490420910  0.0958929904429427  0.2500006473846787
  0.1892031355193307  0.2387609701202134  0.2499999831217730
  0.1878988609176776  0.3793606098993000  0.2500000029029459
  0.1899018379451485  0.5217555857074581  0.2499999998936675
  0.1915827662240201  0.6658901952584364  0.2500000106110566
  0.1918828042101954  0.8094118228398511  0.2500000224693112
  0.1913664123511435  0.9527255750990073  0.2499999746690023
  0.3333323635569633  0.0962734860938739  0.2499999600896598
  0.3334272795883567  0.2407032112916585  0.2499999801915967
  0.3355403757098270  0.6637921616017903  0.2500000113187906
  0.3346620124973846  0.8077039413835889  0.2500000040800009
  0.3337870893056298  0.9519483174069483  0.2499999883958347
  0.4760148392544017  0.0951744929811914  0.2499999762223731
  0.4749448125760628  0.2390059699192929  0.2499999709688018
  0.4773180465326746  0.8067839718669029  0.2499999967228319
  0.4764898894297185  0.9514472847036506  0.2500000009112383
  0.6184368561358365  0.0947502253683922  0.2500000309364960
  0.6186262711620537  0.2384118783971201  0.2500000159709543
  0.6205589927322899  0.3804162817098711  0.2499999759846254
  0.6195285178279556  0.9516533151408996  0.2500000009971921
  0.7614133743629029  0.0950548611983174  0.2500000083617916
  0.7611672541714735  0.2381648058470267  0.2500000327507378
  0.7614525015721461  0.3818675301436290  0.2500000331812280
  0.7613476643557763  0.5273186825257788  0.2500000013762332
  0.7637864902293855  0.6715232343579717  0.2499999548615764
  0.7602186817293332  0.8049682195338662  0.2499999526401482
  0.7609500670288720  0.9508477314089926  0.2499999800522819
  0.9035889809775803  0.0941709810432595  0.2499999793483111
  0.9033797235055701  0.2375468344805332  0.2499999722548915
  0.9038736026777563  0.3811718612198354  0.2499999780666579
  0.9046691979564291  0.5247053150678120  0.2499999927458156
  0.9059472732872333  0.6679832847851768  0.2499999786777235
  0.9062909138596726  0.8109656620941763  0.2499999326227328
  0.9044080674374601  0.9518794852661570  0.2499999626356425
  0.4601081795126776  0.3571968593902929  0.2500000034863753
  0.6447071343335172  0.5445836105277407  0.2499999947576363
  0.5840714609226259  0.4164681373048840  0.2499999674254301
  0.4661979585308227  0.6769158519232126  0.2499999953447580
  0.7164590806235263  0.7156747968594445  0.2499999644548495
  0.3299083199944003  0.3815235874423468  0.2500000047239775
  0.3302261375529811  0.5187431852292437  0.2500000274335092
  0.6202967299657289  0.8106283122145691  0.2499999813702290
 
  0.00000000E+00  0.00000000E+00  0.00000000E+00
  0.00000000E+00  0.00000000E+00  0.00000000E+00
  0.00000000E+00  0.00000000E+00  0.00000000E+00
  0.00000000E+00  0.00000000E+00  0.00000000E+00
  0.00000000E+00  0.00000000E+00  0.00000000E+00
  0.00000000E+00  0.00000000E+00  0.00000000E+00
  0.00000000E+00  0.00000000E+00  0.00000000E+00
  0.00000000E+00  0.00000000E+00  0.00000000E+00
  0.00000000E+00  0.00000000E+00  0.00000000E+00
  0.00000000E+00  0.00000000E+00  0.00000000E+00
  0.00000000E+00  0.00000000E+00  0.00000000E+00
  0.00000000E+00  0.00000000E+00  0.00000000E+00
  0.00000000E+00  0.00000000E+00  0.00000000E+00
  0.00000000E+00  0.00000000E+00  0.00000000E+00
  0.00000000E+00  0.00000000E+00  0.00000000E+00
  0.00000000E+00  0.00000000E+00  0.00000000E+00
  0.00000000E+00  0.00000000E+00  0.00000000E+00
  0.00000000E+00  0.00000000E+00  0.00000000E+00
  0.00000000E+00  0.00000000E+00  0.00000000E+00
  0.00000000E+00  0.00000000E+00  0.00000000E+00
  0.00000000E+00  0.00000000E+00  0.00000000E+00
  0.00000000E+00  0.00000000E+00  0.00000000E+00
  0.00000000E+00  0.00000000E+00  0.00000000E+00
  0.00000000E+00  0.00000000E+00  0.00000000E+00
  0.00000000E+00  0.00000000E+00  0.00000000E+00
  0.00000000E+00  0.00000000E+00  0.00000000E+00
  0.00000000E+00  0.00000000E+00  0.00000000E+00
  0.00000000E+00  0.00000000E+00  0.00000000E+00
  0.00000000E+00  0.00000000E+00  0.00000000E+00
  0.00000000E+00  0.00000000E+00  0.00000000E+00
  0.00000000E+00  0.00000000E+00  0.00000000E+00
  0.00000000E+00  0.00000000E+00  0.00000000E+00
  0.00000000E+00  0.00000000E+00  0.00000000E+00
  0.00000000E+00  0.00000000E+00  0.00000000E+00
  0.00000000E+00  0.00000000E+00  0.00000000E+00
  0.00000000E+00  0.00000000E+00  0.00000000E+00
  0.00000000E+00  0.00000000E+00  0.00000000E+00
  0.00000000E+00  0.00000000E+00  0.00000000E+00
  0.00000000E+00  0.00000000E+00  0.00000000E+00
  0.00000000E+00  0.00000000E+00  0.00000000E+00
  0.00000000E+00  0.00000000E+00  0.00000000E+00
  0.00000000E+00  0.00000000E+00  0.00000000E+00
  0.00000000E+00  0.00000000E+00  0.00000000E+00
  0.00000000E+00  0.00000000E+00  0.00000000E+00
  0.00000000E+00  0.00000000E+00  0.00000000E+00
  0.00000000E+00  0.00000000E+00  0.00000000E+00
  0.00000000E+00  0.00000000E+00  0.00000000E+00
  0.00000000E+00  0.00000000E+00  0.00000000E+00
  0.00000000E+00  0.00000000E+00  0.00000000E+00
  0.00000000E+00  0.00000000E+00  0.00000000E+00
  0.00000000E+00  0.00000000E+00  0.00000000E+00
  0.00000000E+00  0.00000000E+00  0.00000000E+00
  0.00000000E+00  0.00000000E+00  0.00000000E+00
  0.00000000E+00  0.00000000E+00  0.00000000E+00
  0.00000000E+00  0.00000000E+00  0.00000000E+00
  0.00000000E+00  0.00000000E+00  0.00000000E+00
  0.00000000E+00  0.00000000E+00  0.00000000E+00
  0.00000000E+00  0.00000000E+00  0.00000000E+00
  0.00000000E+00  0.00000000E+00  0.00000000E+00
  0.00000000E+00  0.00000000E+00  0.00000000E+00
  0.00000000E+00  0.00000000E+00  0.00000000E+00
  0.00000000E+00  0.00000000E+00  0.00000000E+00
  0.00000000E+00  0.00000000E+00  0.00000000E+00
  0.00000000E+00  0.00000000E+00  0.00000000E+00
  0.00000000E+00  0.00000000E+00  0.00000000E+00
  0.00000000E+00  0.00000000E+00  0.00000000E+00
  0.00000000E+00  0.00000000E+00  0.00000000E+00
  0.00000000E+00  0.00000000E+00  0.00000000E+00
  0.00000000E+00  0.00000000E+00  0.00000000E+00
  0.00000000E+00  0.00000000E+00  0.00000000E+00
  0.00000000E+00  0.00000000E+00  0.00000000E+00
  0.00000000E+00  0.00000000E+00  0.00000000E+00
  0.00000000E+00  0.00000000E+00  0.00000000E+00
  0.00000000E+00  0.00000000E+00  0.00000000E+00
  0.00000000E+00  0.00000000E+00  0.00000000E+00
  0.00000000E+00  0.00000000E+00  0.00000000E+00
  0.00000000E+00  0.00000000E+00  0.00000000E+00
  0.00000000E+00  0.00000000E+00  0.00000000E+00
  0.00000000E+00  0.00000000E+00  0.00000000E+00
  0.00000000E+00  0.00000000E+00  0.00000000E+00
  0.00000000E+00  0.00000000E+00  0.00000000E+00
  0.00000000E+00  0.00000000E+00  0.00000000E+00
  0.00000000E+00  0.00000000E+00  0.00000000E+00
  0.00000000E+00  0.00000000E+00  0.00000000E+00
  0.00000000E+00  0.00000000E+00  0.00000000E+00
  0.00000000E+00  0.00000000E+00  0.00000000E+00
  0.00000000E+00  0.00000000E+00  0.00000000E+00
  0.00000000E+00  0.00000000E+00  0.00000000E+00
  0.00000000E+00  0.00000000E+00  0.00000000E+00
  0.00000000E+00  0.00000000E+00  0.00000000E+00
  0.00000000E+00  0.00000000E+00  0.00000000E+00
  0.00000000E+00  0.00000000E+00  0.00000000E+00
