C4                                      
    1.000000000000000     
    17.2710380553999983    0.0000000000000000    0.0000000000000000
    -8.6355190276999991   14.9571577057000002    0.0000000000000000
     0.0000000000000000    0.0000000000000000   15.0000000000000000
   C    H    N 
    84     4     4
Direct
 -0.0006375021585389 -0.0008670209910461  0.2499999862030996
 -0.0008430631264662  0.1419554135133881  0.2499999758424680
 -0.0007261509727340  0.2853434256783761  0.2499999382075546
 -0.0008361200392152  0.4286645398286468  0.2499999723228823
 -0.0006591873574368  0.5716851294270361  0.2500000389063883
  0.0006764992266607  0.7147407722775182  0.2500000380929707
  0.0006541578038331  0.8574087382636651  0.2499999830526051
  0.1435861539494775  0.0005447129623769  0.2499999534378060
  0.1426686986926082  0.1427636101668585  0.2499999744094631
  0.1416289360928084  0.2848603497062339  0.2499999666560687
  0.1416672143701342  0.4281990194762910  0.2499999379719300
  0.1427111885851510  0.5714151844412403  0.2499999746532105
  0.1435917063436389  0.7145240064540858  0.2499999983990437
  0.1438725618136124  0.8576696136431008  0.2499999774692998
  0.2867461728303293  0.0005784320232741  0.2499999588730900
  0.2867169617519994  0.1435532326814534  0.2499999759380070
  0.2859641068315502  0.2871004648214796  0.2500000197228551
  0.2834168974808917  0.4274143717826723  0.2500000201025693
  0.2860181560940193  0.5703269246118920  0.2499999791510904
  0.2867893502782692  0.7146715305277587  0.2499999560514548
  0.2867550973633727  0.8576332803222452  0.2499999622201235
  0.4296950842413307  0.0005569719228329  0.2499999757452504
  0.4301256015511187  0.1441526431591522  0.2499999818440464
  0.4287889308538980  0.2843158574842755  0.2500000012433751
  0.4288734265580813  0.7158833862688834  0.2500000236719452
  0.4301034304626087  0.8573655814090083  0.2499999905856291
  0.5722400791235748  0.0002247899947501  0.2499999822139570
  0.5722749089872590  0.1435585688024635  0.2500000160716184
  0.5754630179885344  0.2899205774388557  0.2500000097278768
  0.5754174287173609  0.8569751011144180  0.2500000380896017
  0.7147817650900286 -0.0007079139869695  0.2499999930089040
  0.7147807960944109  0.1431593775031267  0.2499999969649123
  0.7148110123384130  0.2870416489595927  0.2500000553033442
  0.7093606940288933  0.4276697748554059  0.2500000181832396
  0.7093585662152618  0.8532348749725621  0.2500000758177866
  0.8561903868582181 -0.0015294372619266  0.2500000278834978
  0.8568996365576764  0.1424945023818691  0.2499999804799736
  0.8568866756884579  0.2859331290920914  0.2499999995349530
  0.8561642495202499  0.4292557399072205  0.2500000424544181
  0.8556337058948991  0.5720550390140405  0.2500000245792587
  0.8579166920788263  0.7147556147768243  0.2500000166761465
  0.8557347758776744  0.8552334725648609  0.2500000396218912
  0.0472017227063607  0.0946314989288965  0.2499999780529033
  0.0463279741259619  0.2371047310988550  0.2499999513160930
  0.0463482542489741  0.3806469004708613  0.2499999316063716
  0.0472262441851797  0.5240473260820074  0.2499999957535232
  0.0480164381195373  0.6670672657490222  0.2500000377552880
  0.0483765827051565  0.8099175395823379  0.2500000019075344
  0.0480178264255266  0.9524095003947514  0.2499999656332751
  0.1910383467771870  0.0955441087289983  0.2499999650531213
  0.1899148590565986  0.2379310679404384  0.2499999891347091
  0.1881127821913078  0.3797468858107731  0.2499999670703022
  0.1899533876558747  0.5234653895628261  0.2499999539513363
  0.1910682528088193  0.6670007433019601  0.2499999729600055
  0.1915060854984975  0.8100245235195409  0.2499999772383291
  0.1914894945513469  0.9529255795220406  0.2499999559994333
  0.3346668152084232  0.0962644673487743  0.2499999670515097
  0.3352896637596657  0.2390459709864638  0.2500000013627185
  0.3298768270914947  0.3798461435395714  0.2500000480275050
  0.3299461771233907  0.5214481672528097  0.2500000166404089
  0.3353595484180231  0.6677148859057669  0.2499999811706949
  0.3346769257333301  0.8098795338628372  0.2499999622805061
  0.3341933208802415  0.9528115955531519  0.2499999636301238
  0.4772332618980544  0.0958540750830909  0.2499999892519736
  0.4776270534187358  0.2398878443700862  0.2499999938460923
  0.4776022576091608  0.8091420733103236  0.2500000275000654
  0.4771984433224510  0.9527816971525470  0.2499999838990865
  0.6194772215608921  0.0955097745280073  0.2499999971267949
  0.6202305271748847  0.2392992512305981  0.2500000459399614
  0.6201645547834237  0.9523552982030661  0.2499999877124315
  0.7621395085123753  0.0951320038782777  0.2499999848610191
  0.7621278888760334  0.2385550603911049  0.2500000205632252
  0.7608066407231175  0.3824618173625094  0.2500000482744073
  0.7587762845388383  0.5284094229707589  0.2500000098272649
  0.7619274576340466  0.6667406259273325  0.2500000287988364
  0.7588094230788145  0.8019547983649631  0.2500000735963582
  0.7608110736121111  0.9498995302809736  0.2500000399248106
  0.9038496946287853  0.0938514728895295  0.2499999936521510
  0.9042582443547494  0.2378968561336547  0.2499999665919229
  0.9038518367375957  0.3815315657319153  0.2500000138688703
  0.9036552453231155  0.5245131699833325  0.2500000413028027
  0.9049782223260561  0.6670517671137361  0.2500000263192903
  0.9050343016045319  0.8095621619500669  0.2500000107835754
  0.9036995142254872  0.9507428509932380  0.2500000240052047
  0.4680242552952385  0.3570011170835131  0.2500000012582795
  0.4026103136987353  0.4188605313204709  0.2500000371629749
  0.4026804394106812  0.5551621920044739  0.2500000205731452
  0.4681261705416471  0.6824569667421363  0.2500000256438275
  0.7151311851040726  0.5747671823551630  0.2500000143525734
  0.7151644074509935  0.7119622423672882  0.2500000607176762
  0.6194680122686276  0.3804893891125583  0.2499999923695131
  0.6194729020588126  0.8104656899991846  0.2500000792945674
 
  0.00000000E+00  0.00000000E+00  0.00000000E+00
  0.00000000E+00  0.00000000E+00  0.00000000E+00
  0.00000000E+00  0.00000000E+00  0.00000000E+00
  0.00000000E+00  0.00000000E+00  0.00000000E+00
  0.00000000E+00  0.00000000E+00  0.00000000E+00
  0.00000000E+00  0.00000000E+00  0.00000000E+00
  0.00000000E+00  0.00000000E+00  0.00000000E+00
  0.00000000E+00  0.00000000E+00  0.00000000E+00
  0.00000000E+00  0.00000000E+00  0.00000000E+00
  0.00000000E+00  0.00000000E+00  0.00000000E+00
  0.00000000E+00  0.00000000E+00  0.00000000E+00
  0.00000000E+00  0.00000000E+00  0.00000000E+00
  0.00000000E+00  0.00000000E+00  0.00000000E+00
  0.00000000E+00  0.00000000E+00  0.00000000E+00
  0.00000000E+00  0.00000000E+00  0.00000000E+00
  0.00000000E+00  0.00000000E+00  0.00000000E+00
  0.00000000E+00  0.00000000E+00  0.00000000E+00
  0.00000000E+00  0.00000000E+00  0.00000000E+00
  0.00000000E+00  0.00000000E+00  0.00000000E+00
  0.00000000E+00  0.00000000E+00  0.00000000E+00
  0.00000000E+00  0.00000000E+00  0.00000000E+00
  0.00000000E+00  0.00000000E+00  0.00000000E+00
  0.00000000E+00  0.00000000E+00  0.00000000E+00
  0.00000000E+00  0.00000000E+00  0.00000000E+00
  0.00000000E+00  0.00000000E+00  0.00000000E+00
  0.00000000E+00  0.00000000E+00  0.00000000E+00
  0.00000000E+00  0.00000000E+00  0.00000000E+00
  0.00000000E+00  0.00000000E+00  0.00000000E+00
  0.00000000E+00  0.00000000E+00  0.00000000E+00
  0.00000000E+00  0.00000000E+00  0.00000000E+00
  0.00000000E+00  0.00000000E+00  0.00000000E+00
  0.00000000E+00  0.00000000E+00  0.00000000E+00
  0.00000000E+00  0.00000000E+00  0.00000000E+00
  0.00000000E+00  0.00000000E+00  0.00000000E+00
  0.00000000E+00  0.00000000E+00  0.00000000E+00
  0.00000000E+00  0.00000000E+00  0.00000000E+00
  0.00000000E+00  0.00000000E+00  0.00000000E+00
  0.00000000E+00  0.00000000E+00  0.00000000E+00
  0.00000000E+00  0.00000000E+00  0.00000000E+00
  0.00000000E+00  0.00000000E+00  0.00000000E+00
  0.00000000E+00  0.00000000E+00  0.00000000E+00
  0.00000000E+00  0.00000000E+00  0.00000000E+00
  0.00000000E+00  0.00000000E+00  0.00000000E+00
  0.00000000E+00  0.00000000E+00  0.00000000E+00
  0.00000000E+00  0.00000000E+00  0.00000000E+00
  0.00000000E+00  0.00000000E+00  0.00000000E+00
  0.00000000E+00  0.00000000E+00  0.00000000E+00
  0.00000000E+00  0.00000000E+00  0.00000000E+00
  0.00000000E+00  0.00000000E+00  0.00000000E+00
  0.00000000E+00  0.00000000E+00  0.00000000E+00
  0.00000000E+00  0.00000000E+00  0.00000000E+00
  0.00000000E+00  0.00000000E+00  0.00000000E+00
  0.00000000E+00  0.00000000E+00  0.00000000E+00
  0.00000000E+00  0.00000000E+00  0.00000000E+00
  0.00000000E+00  0.00000000E+00  0.00000000E+00
  0.00000000E+00  0.00000000E+00  0.00000000E+00
  0.00000000E+00  0.00000000E+00  0.00000000E+00
  0.00000000E+00  0.00000000E+00  0.00000000E+00
  0.00000000E+00  0.00000000E+00  0.00000000E+00
  0.00000000E+00  0.00000000E+00  0.00000000E+00
  0.00000000E+00  0.00000000E+00  0.00000000E+00
  0.00000000E+00  0.00000000E+00  0.00000000E+00
  0.00000000E+00  0.00000000E+00  0.00000000E+00
  0.00000000E+00  0.00000000E+00  0.00000000E+00
  0.00000000E+00  0.00000000E+00  0.00000000E+00
  0.00000000E+00  0.00000000E+00  0.00000000E+00
  0.00000000E+00  0.00000000E+00  0.00000000E+00
  0.00000000E+00  0.00000000E+00  0.00000000E+00
  0.00000000E+00  0.00000000E+00  0.00000000E+00
  0.00000000E+00  0.00000000E+00  0.00000000E+00
  0.00000000E+00  0.00000000E+00  0.00000000E+00
  0.00000000E+00  0.00000000E+00  0.00000000E+00
  0.00000000E+00  0.00000000E+00  0.00000000E+00
  0.00000000E+00  0.00000000E+00  0.00000000E+00
  0.00000000E+00  0.00000000E+00  0.00000000E+00
  0.00000000E+00  0.00000000E+00  0.00000000E+00
  0.00000000E+00  0.00000000E+00  0.00000000E+00
  0.00000000E+00  0.00000000E+00  0.00000000E+00
  0.00000000E+00  0.00000000E+00  0.00000000E+00
  0.00000000E+00  0.00000000E+00  0.00000000E+00
  0.00000000E+00  0.00000000E+00  0.00000000E+00
  0.00000000E+00  0.00000000E+00  0.00000000E+00
  0.00000000E+00  0.00000000E+00  0.00000000E+00
  0.00000000E+00  0.00000000E+00  0.00000000E+00
  0.00000000E+00  0.00000000E+00  0.00000000E+00
  0.00000000E+00  0.00000000E+00  0.00000000E+00
  0.00000000E+00  0.00000000E+00  0.00000000E+00
  0.00000000E+00  0.00000000E+00  0.00000000E+00
  0.00000000E+00  0.00000000E+00  0.00000000E+00
  0.00000000E+00  0.00000000E+00  0.00000000E+00
  0.00000000E+00  0.00000000E+00  0.00000000E+00
  0.00000000E+00  0.00000000E+00  0.00000000E+00
