C    F    H    O 
    1.000000000000000     
  17.2710380553999983   0.0000000000000000   0.0000000000000000
  -8.6355190276999991  14.9571577057000002   0.0000000000000000
   0.0000000000000000   0.0000000000000000  15.0000000000000000
C    F    H    O 
88  8  2  1  
Selective dynamics
Direct
  0.9990809305981210  0.9991244625478980  0.4986613309381580 T T T
  0.9983960756895660  0.1415452975675168  0.4984023246873635 T T T
  0.9979782821215538  0.2844140154574021  0.4952093827869980 T T T
  0.9974717853203788  0.4272770539061231  0.4902961784217192 T T T
  0.9978968664470770  0.5701943979238256  0.4869846084757747 T T T
  0.9989913032307420  0.7131640478093535  0.4890193164023231 T T T
  0.9998332721735760  0.8567626080953616  0.4940496602647966 T T T
  0.1421588798910147  0.9993469383708929  0.4997921715378163 T T T
  0.1419115843403150  0.1421352031054106  0.5011483628433140 T T T
  0.1404639862680295  0.2838480198162566  0.4963636440063461 T T T
  0.1399248065912374  0.4271019872397047  0.4908057318317056 T T T
  0.1407801085283537  0.5699343100187929  0.4890370313494189 T T T
  0.1413027651700306  0.7128125134998413  0.4957037326250456 T T T
  0.1415749911420625  0.8558315870583912  0.4987845483993968 T T T
  0.2841861944319248  0.9982364652867950  0.5000794806115142 T T T
  0.2850616586960625  0.1416289270339491  0.4965472610440808 T T T
  0.2852448152255381  0.2855624232596299  0.4947372479666812 T T T
  0.2810468916980535  0.4258846653888967  0.4870826839449828 T T T
  0.2839660509258873  0.5698840281726670  0.4832440930897264 T T T
  0.2840266672313153  0.7133008833829191  0.4933379769229825 T T T
  0.2839430145748952  0.8557408573688807  0.4994633882161753 T T T
  0.4270613832682754  0.9981216929082570  0.4987172349698713 T T T
  0.4268294962129586  0.1398796655604461  0.4929523523070602 T T T
  0.4266753031704408  0.2783569257044314  0.5070978296268712 T T T
  0.4231838358220413  0.7183599701223639  0.4622980468203645 T T T
  0.4266528163305975  0.8559667378934919  0.4957058074936458 T T T
  0.5700227580414480  0.9987744738475970  0.4936096630517567 T T T
  0.5700363003099744  0.1405731218630069  0.4961806397232315 T T T
  0.5704795802397968  0.2814767825492763  0.4793734341794544 T T T
  0.5703469162788412  0.8568834138291949  0.4892432727032752 T T T
  0.7132291636628535  0.9993029870501920  0.4911425819581359 T T T
  0.7131430192581161  0.1417708864054505  0.4943779682810551 T T T
  0.7131276465311640  0.2843373204488437  0.4870849795121696 T T T
  0.7112392088091848  0.4253927257998969  0.4588353794447190 T T T
  0.7202291577997157  0.5757797474446503  0.4486886913991334 T T T
  0.7219816440524381  0.7201470516000817  0.4521754256047431 T T T
  0.7132568011874543  0.8566473027647395  0.4878527542757002 T T T
  0.8560994456777935  0.9991641027332530  0.4920548008032176 T T T
  0.8557208512180919  0.1418151649621588  0.4946558409320565 T T T
  0.8554449399563026  0.2845409245704429  0.4920389063503684 T T T
  0.8546819285413039  0.4272924309411666  0.4826387141573745 T T T
  0.8557415166461912  0.5705612026941377  0.4708489359242766 T T T
  0.8588389340175766  0.7152609128524754  0.4749111194011564 T T T
  0.8572052307108278  0.8566515714411249  0.4887886622899064 T T T
  0.0465761009784126  0.0944174615241952  0.5002215102882178 T T T
  0.0453251250531324  0.2364488681421371  0.4971393782825360 T T T
  0.0447796350394906  0.3795394684765433  0.4929491347904830 T T T
  0.0454910561569233  0.5224805172560334  0.4891288414332531 T T T
  0.0460942942543624  0.6653953595378326  0.4906916437300117 T T T
  0.0465568549969633  0.8083754951637036  0.4944995110083579 T T T
  0.0469344970979231  0.9516915020494180  0.4987252821799533 T T T
  0.1897372599996634  0.0944030711152862  0.4991001966913875 T T T
  0.1891152892281316  0.2372904352651120  0.4998270864827542 T T T
  0.1862672850287341  0.3785586629440763  0.4917385281381520 T T T
  0.1879647876666578  0.5220664792340698  0.4859854164629993 T T T
  0.1886754975334167  0.6652783257823801  0.4938962492143126 T T T
  0.1889084466445922  0.8081107552559854  0.4987678361034800 T T T
  0.1892256852212806  0.9510482744136250  0.5000789531500540 T T T
  0.3319210778145021  0.0933795748208926  0.4973298067736708 T T T
  0.3336130084987274  0.2372654842127837  0.4985785819413839 T T T
  0.3258019302868788  0.3770366916041001  0.4784708139693572 T T T
  0.3262912476481870  0.5197038373943755  0.4915671869429569 T T T
  0.3316880770438610  0.6663987473862765  0.4806881689792840 T T T
  0.3315448132863554  0.8082778109672275  0.4963964440330623 T T T
  0.3316741260833523  0.9507071873917772  0.5000914125694049 T T T
  0.4748926980326471  0.0928673859256805  0.4952484595203679 T T T
  0.4750051582043983  0.2345485487401966  0.4906739395225721 T T T
  0.4742608077748743  0.8092507907358111  0.4845140645918711 T T T
  0.4749077928546301  0.9510855965627932  0.4978573357336082 T T T
  0.6178369261090613  0.0936547374435217  0.4954540293115132 T T T
  0.6183247553339661  0.2356201959771357  0.4906877273980455 T T T
  0.6185488885251430  0.3693425114900482  0.4466411047923588 T T T
  0.6208752408427300  0.8145575104374281  0.5008575177770351 T T T
  0.6181863682380502  0.9519139403095266  0.4894121854327018 T T T
  0.7607726137189401  0.0944332328699239  0.4939411667499004 T T T
  0.7606478356344667  0.2368633849322321  0.4919482639479129 T T T
  0.7593664668746097  0.3793495623876482  0.4786436676933427 T T T
  0.7603418679051267  0.5230621660692872  0.4559662545747088 T T T
  0.7655711653596217  0.6695272853856433  0.4568761344582977 T T T
  0.7619483091486405  0.8091083182521895  0.4789032790541574 T T T
  0.7609083532845182  0.9519947512665130  0.4882937326105573 T T T
  0.9032141986528164  0.0939483423907015  0.4953331377033323 T T T
  0.9029720333116724  0.2369137050740616  0.4946294956846771 T T T
  0.9022160244421632  0.3798177137925202  0.4891412424152881 T T T
  0.9027514742900564  0.5227883737566961  0.4798473105375599 T T T
  0.9041253407818868  0.6657527427668100  0.4784592081340724 T T T
  0.9050923009432734  0.8095632521600884  0.4862619388350491 T T T
  0.9039583334774453  0.9515414746429928  0.4947695380819310 T T T
  0.4742646254402027  0.3628405213029389  0.5390972471717629 T T T
  0.4098497934082398  0.4227483880134456  0.4452450206275005 T T T
  0.4139575832972034  0.5601049546755252  0.5137239543032981 T T T
  0.6394216744435834  0.6817200978505709  0.4158733788646083 T T T
  0.6311423136779646  0.5371161982360187  0.4400732104602272 T T T
  0.5696403270939229  0.3932220463866264  0.3950964191634427 T T T
  0.5776904349953605  0.7299458831468743  0.5336974425884546 T T T
  0.4639591039004896  0.6822614075993663  0.4148238232612408 T T T
  0.5681574793167438  0.6167114700403900  0.6068825394259081 T T T
  0.5449720052696944  0.5315588016852211  0.5550175627656887 T T T
  0.5808663734089481  0.5679711753943713  0.6046639079999991 T T F
