C    H    N    O 
    1.000000000000000     
  17.2710380553999983   0.0000000000000000   0.0000000000000000
  -8.6355190276999991  14.9571577057000002   0.0000000000000000
   0.0000000000000000   0.0000000000000000  15.0000000000000000
C    H    N    O 
86  8  2  1  
Selective dynamics
Direct
  0.9996305081602700  0.9994866143909248  0.4937822366936105 T T T
  0.9996060039219126  0.1422303905050691  0.4945786992087409 T T T
  0.9998513645140450  0.2852819118245400  0.4962999806519572 T T T
  0.9997709508454510  0.4281368849241455  0.4972354387192401 T T T
  0.9995702410403148  0.5708351688346693  0.4967180718440172 T T T
  0.9998061736296870  0.7136382712327418  0.4954523223552507 T T T
  0.9999730659020311  0.8568926156221546  0.4940608710578651 T T T
  0.1431878777473264  0.0005473964444125  0.4946732409554122 T T T
  0.1431632716136946  0.1433145552360759  0.4940240867746075 T T T
  0.1427526976629613  0.2857724434651522  0.4949664157739113 T T T
  0.1428860983259418  0.4290731404868025  0.4965267063422713 T T T
  0.1429120144621647  0.5713820300172641  0.4971486426578204 T T T
  0.1427025611826739  0.7140856263537264  0.4967666472344636 T T T
  0.1426876988176187  0.8572536531647118  0.4958579790724215 T T T
  0.2859876680329259  0.0005720781198711  0.4962729494557976 T T T
  0.2867600310304291  0.1438690451711243  0.4948686329054210 T T T
  0.2869210196511836  0.2880693980762151  0.4943349985740603 T T T
  0.2853305173668291  0.4293268484076234  0.4949701223962844 T T T
  0.2876366218982001  0.5724376327994266  0.4961099895968312 T T T
  0.2856953580001719  0.7151121301262234  0.4967491859734566 T T T
  0.2850584768363788  0.8576490231922806  0.4969239873120819 T T T
  0.4285318342046718  0.0000169176245884  0.4972120986873553 T T T
  0.4297803457053527  0.1436818582135991  0.4963192067938684 T T T
  0.4292383287188913  0.2842093458045798  0.4947307698888721 T T T
  0.4272345728718477  0.8567060260800311  0.4968472211683336 T T T
  0.5706656226020780  0.9991125142780206  0.4970290017199165 T T T
  0.5714996563483152  0.1421359453606645  0.4972960230146580 T T T
  0.5753888944240518  0.2882039655169650  0.4958870234264935 T T T
  0.5694887243096460  0.8549267481810966  0.4958799135479526 T T T
  0.7128299053059786  0.9980044379890736  0.4956258325905679 T T T
  0.7140671975578281  0.1415357330376931  0.4971693813456659 T T T
  0.7146724677496957  0.2843431588447918  0.4971810129671144 T T T
  0.7105097788463379  0.4236105705016308  0.4952966400189538 T T T
  0.7150711500691019  0.5703105673327944  0.4923982074412566 T T T
  0.7159068602896321  0.7132495353829027  0.4915181838566272 T T T
  0.7114406650811046  0.8548832319265960  0.4937773047804706 T T T
  0.8561320708548882  0.9986610971078131  0.4940486201563577 T T T
  0.8564667009525085  0.1416441587053190  0.4957766156964183 T T T
  0.8570576713405845  0.2847014866703938  0.4971296599822059 T T T
  0.8568060413148454  0.4275138004229181  0.4967668560997191 T T T
  0.8559109098705237  0.5697227106374572  0.4951579688638065 T T T
  0.8574434980234567  0.7133322392536621  0.4933168653716813 T T T
  0.8563533919056021  0.8556889926017736  0.4930679715619389 T T T
  0.0476539021506232  0.0950147883780759  0.4939729246598565 T T T
  0.0471813090206110  0.2374995502997918  0.4952930749875779 T T T
  0.0472884872175730  0.3807184088656121  0.4968883278239883 T T T
  0.0475331629483776  0.5234987135323806  0.4972074358402994 T T T
  0.0473280118610285  0.6662166751056374  0.4964275622044359 T T T
  0.0472898566117496  0.8090953779432786  0.4951106821993628 T T T
  0.0476112515593219  0.9521812679896812  0.4940800811011361 T T T
  0.1910836009265499  0.0957427961474649  0.4943980507926196 T T T
  0.1908293532267918  0.2386790286717428  0.4942362734485987 T T T
  0.1896688489492480  0.3810091107474974  0.4955056533597498 T T T
  0.1911977352405876  0.5246007395804823  0.4967847560188053 T T T
  0.1903451032777425  0.6668082251047265  0.4969338663785446 T T T
  0.1901006968625424  0.8096172133927876  0.4966238829501011 T T T
  0.1907027939586676  0.9526904445746898  0.4956141314028607 T T T
  0.3343236302969657  0.0962894543427894  0.4958287094392339 T T T
  0.3357500453299310  0.2394742858771965  0.4945546135474508 T T T
  0.3312119556187898  0.3810542499805968  0.4947231278391849 T T T
  0.3319934190213552  0.5239492050531784  0.4950004012611481 T T T
  0.3366449259536447  0.6706601625062972  0.4964400503819647 T T T
  0.3324768373045555  0.8099084338140187  0.4969015318395693 T T T
  0.3331009886015677  0.9527228492904932  0.4969744245932020 T T T
  0.4764762041030149  0.0951196175451209  0.4970800886344500 T T T
  0.4776828940292390  0.2393076205771074  0.4955362975836077 T T T
  0.4717956207008807  0.8060494312025281  0.4964589314139118 T T T
  0.4756429182014004  0.9520724408253826  0.4971249789113517 T T T
  0.6186426276841482  0.0942279076624493  0.4973761360138395 T T T
  0.6199049342829934  0.2375295557088162  0.4969694275669268 T T T
  0.6179701073210593  0.8100652281369031  0.4947359076052880 T T T
  0.6173997625869198  0.9505760856965360  0.4962491648564155 T T T
  0.7611937763016731  0.0937125144010735  0.4961819319952200 T T T
  0.7621095901261298  0.2366176302571875  0.4973757212081927 T T T
  0.7614602642927496  0.3791766733661388  0.4965092705882748 T T T
  0.7594553438473375  0.5218465444687093  0.4942613906183415 T T T
  0.7617632957342473  0.6649545159726671  0.4922057062506835 T T T
  0.7602442524791941  0.8062796582954816  0.4925479023271799 T T T
  0.7604342516480525  0.9504942394083720  0.4944060754759632 T T T
  0.9040198117604742  0.0938372757482461  0.4947313056421314 T T T
  0.9044595817568390  0.2370748319807927  0.4965049762129302 T T T
  0.9044287590872784  0.3802361905429468  0.4972050366651724 T T T
  0.9041930449370924  0.5229420380764380  0.4963389283868660 T T T
  0.9041990952702514  0.6652629436206031  0.4945630952241107 T T T
  0.9043889546034720  0.8085606965088769  0.4932912011751516 T T T
  0.9040781014314940  0.9511111266032261  0.4935467222908297 T T T
  0.4682885476776946  0.3568704817093220  0.4945421305514204 T T T
  0.4039418252498858  0.4198571735940110  0.4961441683274674 T T T
  0.4048686792070209  0.5601206486931432  0.4938128010203652 T T T
  0.6431822209737404  0.6744793204579401  0.4917224204962037 T T T
  0.6421650599995556  0.5340525564333084  0.4911672278786293 T T T
  0.5789512267693757  0.7374021175492980  0.4946659723514656 T T T
  0.4900289244347129  0.5677321781208978  0.6440569553447257 T T T
  0.5745413437820913  0.5587697398069296  0.6419600931805634 T T T
  0.4266427249419187  0.7156381840241837  0.4964315898615430 T T T
  0.6205127603175539  0.3785931701904840  0.4950698786978603 T T T
  0.5264036445331188  0.5542050617469234  0.6046639079999991 T T F
