C    N    H    O                        
   1.00000000000000     
    17.2710380553999983    0.0000000000000000    0.0000000000000000
    -8.6355190276999991   14.9571577057000002    0.0000000000000000
     0.0000000000000000    0.0000000000000000   15.0000000000000000
  C/253f7b50bb8d  N/e053789ff3a6  H/030f79b5d3ab  O/818f92134a0a
              80               8               2               1
Selective dynamics
Direct
  0.0005228213250277  0.0004308509093047  0.5021373200521699   T   T   T
  0.9996481269755214  0.1427028222339228  0.5020918696848414   T   T   T
  0.9993992446617261  0.2857421757393245  0.5021420106893962   T   T   T
  0.9997050009599742  0.4290061000470371  0.5023295121643079   T   T   T
  0.0005859742714844  0.5721192348472903  0.5022921064000250   T   T   T
  0.0020618587245211  0.7154627984909362  0.5022966431866663   T   T   T
  0.0020469788655999  0.8586097873912072  0.5022594046474997   T   T   T
  0.1448578850232383  0.0021634486438072  0.5013910527462124   T   T   T
  0.1441519225208919  0.1446983828642313  0.5009393797353670   T   T   T
  0.1424573866053014  0.2858374278271578  0.5004779858792381   T   T   T
  0.1425420557832972  0.4286445025142530  0.5005933886034636   T   T   T
  0.1442978458439980  0.5714575837742247  0.5010874533559150   T   T   T
  0.1448817834956203  0.7146799813278977  0.5014839630618406   T   T   T
  0.1449151472008256  0.8584597475357130  0.5016919602776931   T   T   T
  0.2874484909747215  0.0016789427630344  0.5007908771022892   T   T   T
  0.2880202096633505  0.1464302649721642  0.5000345767671216   T   T   T
  0.2887942215726456  0.2935738748022186  0.4987346902853162   T   T   T
  0.2851177775237184  0.4283783056883842  0.4982217423556567   T   T   T
  0.2890937739639882  0.5672899057175153  0.4991158793131057   T   T   T
  0.2880428523237166  0.7135777332367385  0.5002261381294583   T   T   T
  0.2874469038773284  0.8577500779253221  0.5008195939116230   T   T   T
  0.4299839380949647  0.0010003312132262  0.5007742262012784   T   T   T
  0.4300453273476264  0.1458712788361832  0.5002934444324436   T   T   T
  0.4300525967353958  0.8561966530070242  0.5004252938223558   T   T   T
  0.5718431803351123  0.9997070510460885  0.5014309448851217   T   T   T
  0.5718439476863066  0.1441554611763913  0.5014196989351498   T   T   T
  0.5741834856183203  0.2919232862696693  0.5006651079260220   T   T   T
  0.5742307548431617  0.8542862833865630  0.5004807621736300   T   T   T
  0.7139263754275204  0.9986074809964869  0.5020862658205971   T   T   T
  0.7142384789096273  0.1431322007943223  0.5025249751773438   T   T   T
  0.7139300022509057  0.2873541810337882  0.5021886848122893   T   T   T
  0.7096513202587247  0.4284107972874901  0.5010143864216081   T   T   T
  0.7096210483094340  0.8532829552601569  0.5006386750921588   T   T   T
  0.8565389427318638  0.9989254759745767  0.5023371140724746   T   T   T
  0.8565159222756202  0.1424955431910745  0.5027931694216946   T   T   T
  0.8565364028551867  0.2861024757263364  0.5028561115391470   T   T   T
  0.8565654787815479  0.4296836200803004  0.5025363518337913   T   T   T
  0.8570999764142849  0.5728979877981930  0.5019008301948579   T   T   T
  0.8593792019608860  0.7157068317031078  0.5017014570931164   T   T   T
  0.8570819508483901  0.8562381904421275  0.5018027120168340   T   T   T
  0.0483749903175768  0.0960204178557817  0.5017811065510041   T   T   T
  0.0468266556120240  0.2378411204604663  0.5016103934009768   T   T   T
  0.0468965568622829  0.3810474517952231  0.5017742909990355   T   T   T
  0.0484803674936827  0.5243958550927764  0.5020075365869745   T   T   T
  0.0492496930166177  0.6675337835358456  0.5020962819640029   T   T   T
  0.0495336894702163  0.8107726374691853  0.5022085649790722   T   T   T
  0.0492203027362240  0.9537081671637624  0.5019928602138691   T   T   T
  0.1923553869008350  0.0975165281583404  0.5007261739035752   T   T   T
  0.1918583125327431  0.2402089520360388  0.5001241093937873   T   T   T
  0.1893411455893509  0.3806340063827531  0.4997883981253699   T   T   T
  0.1920985357273964  0.5236687465145223  0.5002405077605112   T   T   T
  0.1924131797468297  0.6668325169007898  0.5008954183989478   T   T   T
  0.1923909484039955  0.8103910810785340  0.5013149591129025   T   T   T
  0.1923776454750807  0.9539741288740330  0.5013023993151717   T   T   T
  0.3349947342095995  0.0979161736726212  0.5003277566933333   T   T   T
  0.3392002806863363  0.2431072925992898  0.4992129177251042   T   T   T
  0.3393283012521680  0.6681533083808227  0.4995164729798092   T   T   T
  0.3350064656456751  0.8090819855480857  0.5004364470087559   T   T   T
  0.3346577378408954  0.9533275320781675  0.5007675814396775   T   T   T
  0.4770303718174889  0.0967731496375255  0.5007987886562284   T   T   T
  0.4748484184929325  0.2423023771388218  0.5000460702382407   T   T   T
  0.4748660534552498  0.8045605100454981  0.5000709729165433   T   T   T
  0.4770347243792499  0.9522923772158358  0.5008419362980859   T   T   T
  0.6189058235242872  0.0954634165901015  0.5018655066226044   T   T   T
  0.6188966783429046  0.2402531763319685  0.5014899881506967   T   T   T
  0.6188980048062290  0.9506688912965124  0.5014183843988225   T   T   T
  0.7614702920993608  0.0948074804562319  0.5026648622702172   T   T   T
  0.7614731481193528  0.2386982921675468  0.5027029159165600   T   T   T
  0.7608391686271416  0.3828563016947278  0.5020767097082535   T   T   T
  0.7600160104465455  0.5294342081863654  0.5006497484595175   T   T   T
  0.7634529864416827  0.6677840546805838  0.4998980317432022   T   T   T
  0.7599972536261232  0.8026173794792641  0.5003751837011944   T   T   T
  0.7608373281447258  0.9500216033295770  0.5018712562946914   T   T   T
  0.9040171366039469  0.0942889220784211  0.5025847003838431   T   T   T
  0.9039982912733930  0.2380239492611257  0.5027847939053557   T   T   T
  0.9040504021289816  0.3817917814417058  0.5027391833055362   T   T   T
  0.9047967383194836  0.5250842701879154  0.5023609026976510   T   T   T
  0.9063815761622200  0.6678805021658455  0.5021319994183614   T   T   T
  0.9063618909632487  0.8105387147745013  0.5020818992268595   T   T   T
  0.9047636111245365  0.9517389949950491  0.5022037805987498   T   T   T
  0.4291041427532089  0.2870915773299538  0.4993289470857925   T   T   T
  0.4291621768381385  0.7140927147161397  0.4994628201376505   T   T   T
  0.7168486595522824  0.5758274733198639  0.4990366579671837   T   T   T
  0.7169390223311393  0.7131169135830339  0.4986839726081285   T   T   T
  0.3318191263593275  0.3832650217012604  0.4972774310971061   T   T   T
  0.3320473853212274  0.5203610851400724  0.4979381473856901   T   T   T
  0.6198049774086682  0.3823893182741283  0.5003619819423510   T   T   T
  0.6198383904392438  0.8094946866214020  0.4999455745029502   T   T   T
  0.4675812743771674  0.5535437650344931  0.5185511177194442   T   T   T
  0.4996152255356311  0.4851050924824661  0.5183852852273302   T   T   T
  0.5186848489478222  0.5466628972137388  0.5348879690000032   T   T   F
 
  0.00000000E+00  0.00000000E+00  0.00000000E+00
  0.00000000E+00  0.00000000E+00  0.00000000E+00
  0.00000000E+00  0.00000000E+00  0.00000000E+00
  0.00000000E+00  0.00000000E+00  0.00000000E+00
  0.00000000E+00  0.00000000E+00  0.00000000E+00
  0.00000000E+00  0.00000000E+00  0.00000000E+00
  0.00000000E+00  0.00000000E+00  0.00000000E+00
  0.00000000E+00  0.00000000E+00  0.00000000E+00
  0.00000000E+00  0.00000000E+00  0.00000000E+00
  0.00000000E+00  0.00000000E+00  0.00000000E+00
  0.00000000E+00  0.00000000E+00  0.00000000E+00
  0.00000000E+00  0.00000000E+00  0.00000000E+00
  0.00000000E+00  0.00000000E+00  0.00000000E+00
  0.00000000E+00  0.00000000E+00  0.00000000E+00
  0.00000000E+00  0.00000000E+00  0.00000000E+00
  0.00000000E+00  0.00000000E+00  0.00000000E+00
  0.00000000E+00  0.00000000E+00  0.00000000E+00
  0.00000000E+00  0.00000000E+00  0.00000000E+00
  0.00000000E+00  0.00000000E+00  0.00000000E+00
  0.00000000E+00  0.00000000E+00  0.00000000E+00
  0.00000000E+00  0.00000000E+00  0.00000000E+00
  0.00000000E+00  0.00000000E+00  0.00000000E+00
  0.00000000E+00  0.00000000E+00  0.00000000E+00
  0.00000000E+00  0.00000000E+00  0.00000000E+00
  0.00000000E+00  0.00000000E+00  0.00000000E+00
  0.00000000E+00  0.00000000E+00  0.00000000E+00
  0.00000000E+00  0.00000000E+00  0.00000000E+00
  0.00000000E+00  0.00000000E+00  0.00000000E+00
  0.00000000E+00  0.00000000E+00  0.00000000E+00
  0.00000000E+00  0.00000000E+00  0.00000000E+00
  0.00000000E+00  0.00000000E+00  0.00000000E+00
  0.00000000E+00  0.00000000E+00  0.00000000E+00
  0.00000000E+00  0.00000000E+00  0.00000000E+00
  0.00000000E+00  0.00000000E+00  0.00000000E+00
  0.00000000E+00  0.00000000E+00  0.00000000E+00
  0.00000000E+00  0.00000000E+00  0.00000000E+00
  0.00000000E+00  0.00000000E+00  0.00000000E+00
  0.00000000E+00  0.00000000E+00  0.00000000E+00
  0.00000000E+00  0.00000000E+00  0.00000000E+00
  0.00000000E+00  0.00000000E+00  0.00000000E+00
  0.00000000E+00  0.00000000E+00  0.00000000E+00
  0.00000000E+00  0.00000000E+00  0.00000000E+00
  0.00000000E+00  0.00000000E+00  0.00000000E+00
  0.00000000E+00  0.00000000E+00  0.00000000E+00
  0.00000000E+00  0.00000000E+00  0.00000000E+00
  0.00000000E+00  0.00000000E+00  0.00000000E+00
  0.00000000E+00  0.00000000E+00  0.00000000E+00
  0.00000000E+00  0.00000000E+00  0.00000000E+00
  0.00000000E+00  0.00000000E+00  0.00000000E+00
  0.00000000E+00  0.00000000E+00  0.00000000E+00
  0.00000000E+00  0.00000000E+00  0.00000000E+00
  0.00000000E+00  0.00000000E+00  0.00000000E+00
  0.00000000E+00  0.00000000E+00  0.00000000E+00
  0.00000000E+00  0.00000000E+00  0.00000000E+00
  0.00000000E+00  0.00000000E+00  0.00000000E+00
  0.00000000E+00  0.00000000E+00  0.00000000E+00
  0.00000000E+00  0.00000000E+00  0.00000000E+00
  0.00000000E+00  0.00000000E+00  0.00000000E+00
  0.00000000E+00  0.00000000E+00  0.00000000E+00
  0.00000000E+00  0.00000000E+00  0.00000000E+00
  0.00000000E+00  0.00000000E+00  0.00000000E+00
  0.00000000E+00  0.00000000E+00  0.00000000E+00
  0.00000000E+00  0.00000000E+00  0.00000000E+00
  0.00000000E+00  0.00000000E+00  0.00000000E+00
  0.00000000E+00  0.00000000E+00  0.00000000E+00
  0.00000000E+00  0.00000000E+00  0.00000000E+00
  0.00000000E+00  0.00000000E+00  0.00000000E+00
  0.00000000E+00  0.00000000E+00  0.00000000E+00
  0.00000000E+00  0.00000000E+00  0.00000000E+00
  0.00000000E+00  0.00000000E+00  0.00000000E+00
  0.00000000E+00  0.00000000E+00  0.00000000E+00
  0.00000000E+00  0.00000000E+00  0.00000000E+00
  0.00000000E+00  0.00000000E+00  0.00000000E+00
  0.00000000E+00  0.00000000E+00  0.00000000E+00
  0.00000000E+00  0.00000000E+00  0.00000000E+00
  0.00000000E+00  0.00000000E+00  0.00000000E+00
  0.00000000E+00  0.00000000E+00  0.00000000E+00
  0.00000000E+00  0.00000000E+00  0.00000000E+00
  0.00000000E+00  0.00000000E+00  0.00000000E+00
  0.00000000E+00  0.00000000E+00  0.00000000E+00
  0.00000000E+00  0.00000000E+00  0.00000000E+00
  0.00000000E+00  0.00000000E+00  0.00000000E+00
  0.00000000E+00  0.00000000E+00  0.00000000E+00
  0.00000000E+00  0.00000000E+00  0.00000000E+00
  0.00000000E+00  0.00000000E+00  0.00000000E+00
  0.00000000E+00  0.00000000E+00  0.00000000E+00
  0.00000000E+00  0.00000000E+00  0.00000000E+00
  0.00000000E+00  0.00000000E+00  0.00000000E+00
  0.00000000E+00  0.00000000E+00  0.00000000E+00
  0.00000000E+00  0.00000000E+00  0.00000000E+00
  0.00000000E+00  0.00000000E+00  0.00000000E+00
