C4                                      
    1.000000000000000     
    17.2710380553999983    0.0000000000000000    0.0000000000000000
    -8.6355190276999991   14.9571577057000002    0.0000000000000000
     0.0000000000000000    0.0000000000000000   15.0000000000000000
   C    F    N 
    82     2     6
Direct
 -0.0001238746079248  0.0002296315772126  0.2499990381373058
 -0.0001492385233197  0.1429638897647657  0.2499992797905781
 -0.0001633603825377  0.2856603308717309  0.2499991333874615
 -0.0001840889288417  0.4284057656664509  0.2499991339252819
 -0.0001393810350688  0.5711184927249129  0.2499997300695682
 -0.0000674135842567  0.7139464177517160  0.2499987216195050
 -0.0001063592687652  0.8573782514639641  0.2499984702861144
  0.1435084866084286  0.0010874226096661  0.2499992268920458
  0.1439898994010332  0.1444093507037751  0.2499996199054239
  0.1429438757727273  0.2858614103478465  0.2499997766611492
  0.1429756811943453  0.4284881356652196  0.2499997333017963
  0.1439895615732074  0.5709883791807197  0.2499995017483707
  0.1434768303962155  0.7137175616701591  0.2499995371622448
  0.1429371741370844  0.8571292323454213  0.2499995445275125
  0.2857965213897811  0.0003538653784339  0.2499998575829400
  0.2871678538879023  0.1454161796257379  0.2500014626698245
  0.2891292585683750  0.2934725387587688  0.2500000891673771
  0.2858547383642671  0.4286044161321139  0.2500002148305082
  0.2891420665008730  0.5670362809468774  0.2500001450492173
  0.2872308205211122  0.7131330216326688  0.2499996681656249
  0.2857895895874674  0.8567501599779481  0.2499997925053659
  0.4284825633985720 -0.0000214837791198  0.2499998216883768
  0.4286685744540965  0.1443219912673914  0.2499995251615376
  0.4286979724900727  0.8559018486477236  0.2499994663501304
  0.5706642226291868 -0.0004434631876404  0.2499995845943794
  0.5706318516441430  0.1427401278189095  0.2499998151028175
  0.5730972049923185  0.2890935577801133  0.2499998689389120
  0.5731504861985040  0.8557089743245434  0.2499999020804269
  0.7133395495737325 -0.0000564545111216  0.2499996768901512
  0.7136271570308589  0.1426110274431899  0.2499997110157215
  0.7132458135328120  0.2849130001233725  0.2500004567888200
  0.7093860203949915  0.4237265777508472  0.2500010169387544
  0.7093330554557812  0.8571292436980533  0.2499999811096252
  0.8563985159617129 -0.0001621216450348  0.2499993833223298
  0.8566304362814144  0.1427089054092114  0.2499992331298938
  0.8564840949226582  0.2853502782124261  0.2500013863251473
  0.8563810978577754  0.4280328248241652  0.2500004250063786
  0.8555770505250618  0.5703463582373416  0.2499994399122165
  0.8572530066308246  0.7143634338776218  0.2499989695319146
  0.8554915255592753  0.8566576490326929  0.2499996690678956
  0.0481965027004261  0.0959368423510689  0.2499992857994747
  0.0473449211192751  0.2379701561625140  0.2499994018169481
  0.0473645426343991  0.3808871394569321  0.2499992718420911
  0.0481721051901963  0.5237534310879397  0.2499993444670535
  0.0478789150842527  0.6664239546748080  0.2499988368255688
  0.0474026049799869  0.8094006282559850  0.2499985990622132
  0.0478812119408244  0.9528352368073236  0.2499989686003577
  0.1914682664852368  0.0966131172311895  0.2499995759993671
  0.1921273746149157  0.2400949872722295  0.2499998855505825
  0.1899599595380033  0.3806695490395833  0.2499999633545391
  0.1921571634609316  0.5234580490697632  0.2499998353847977
  0.1915176066013553  0.6662451427119656  0.2499996733927130
  0.1907137695522845  0.8093414273792187  0.2500008863487118
  0.1907259898117343  0.9526722030310127  0.2499992606886559
  0.3336750549126516  0.0965613536735064  0.2499994390421881
  0.3388590938603533  0.2423131638290452  0.2499999556104625
  0.3389807225631435  0.6680440860336290  0.2499999754179127
  0.3336899308578042  0.8084950189180579  0.2500009875373701
  0.3330708185759958  0.9521767107205446  0.2500010710062173
  0.4757240818972616  0.0954994460615112  0.2499993269720939
  0.4737911571516291  0.2404860481427897  0.2499996146630018
  0.4738892151402805  0.8049425272997254  0.2499997624558224
  0.4757504476091631  0.9517830349162684  0.2499996166034667
  0.6180582410197624  0.0948443221774763  0.2499995728931809
  0.6180252861726385  0.2381541163033215  0.2500004106131950
  0.6180923307230379  0.9515481151323584  0.2499997201635872
  0.7613805498685335  0.0953743780428750  0.2500007637153258
  0.7612348380921917  0.2375358675531616  0.2499999147430090
  0.7607788364480115  0.3796318477027563  0.2499998051390251
  0.7590527324478795  0.5216605821177355  0.2500018532305929
  0.7616084572738310  0.6665233729057972  0.2499993820635973
  0.7589579092285710  0.8087984076421642  0.2499992753735511
  0.7607902535541901  0.9526043221307292  0.2499997569565272
  0.9043018705694664  0.0949073121152831  0.2499992334149191
  0.9043585112264025  0.2379530440226352  0.2499989776624134
  0.9042276492739907  0.3808031905608341  0.2499993136956481
  0.9041063331967296  0.5234365088250575  0.2499991662645264
  0.9041378427451208  0.6659801990658052  0.2499991007445318
  0.9040938881472158  0.8096267639608623  0.2499986685582019
  0.9040757404332049  0.9521106504307103  0.2499993456139133
  0.7157586905492940  0.5717514071690349  0.2500078589988715
  0.7156617414953066  0.7154097309411265  0.2499984593722507
  0.6264656835646329  0.6686254493680850  0.2499945660019284
  0.6265966718471561  0.5292968591958148  0.2500230162461314
  0.4287435394126228  0.2858228408055075  0.2499998911157487
  0.4288728830408267  0.7145130408663182  0.2500001086322206
  0.3325442848336722  0.3833323538229573  0.2500002094106243
  0.3325348695626950  0.5205742848920540  0.2500003071193189
  0.6193922846407230  0.3788411536497155  0.2499996228935326
  0.6193633548363635  0.8121419003099237  0.2500001505813728
 
  0.00000000E+00  0.00000000E+00  0.00000000E+00
  0.00000000E+00  0.00000000E+00  0.00000000E+00
  0.00000000E+00  0.00000000E+00  0.00000000E+00
  0.00000000E+00  0.00000000E+00  0.00000000E+00
  0.00000000E+00  0.00000000E+00  0.00000000E+00
  0.00000000E+00  0.00000000E+00  0.00000000E+00
  0.00000000E+00  0.00000000E+00  0.00000000E+00
  0.00000000E+00  0.00000000E+00  0.00000000E+00
  0.00000000E+00  0.00000000E+00  0.00000000E+00
  0.00000000E+00  0.00000000E+00  0.00000000E+00
  0.00000000E+00  0.00000000E+00  0.00000000E+00
  0.00000000E+00  0.00000000E+00  0.00000000E+00
  0.00000000E+00  0.00000000E+00  0.00000000E+00
  0.00000000E+00  0.00000000E+00  0.00000000E+00
  0.00000000E+00  0.00000000E+00  0.00000000E+00
  0.00000000E+00  0.00000000E+00  0.00000000E+00
  0.00000000E+00  0.00000000E+00  0.00000000E+00
  0.00000000E+00  0.00000000E+00  0.00000000E+00
  0.00000000E+00  0.00000000E+00  0.00000000E+00
  0.00000000E+00  0.00000000E+00  0.00000000E+00
  0.00000000E+00  0.00000000E+00  0.00000000E+00
  0.00000000E+00  0.00000000E+00  0.00000000E+00
  0.00000000E+00  0.00000000E+00  0.00000000E+00
  0.00000000E+00  0.00000000E+00  0.00000000E+00
  0.00000000E+00  0.00000000E+00  0.00000000E+00
  0.00000000E+00  0.00000000E+00  0.00000000E+00
  0.00000000E+00  0.00000000E+00  0.00000000E+00
  0.00000000E+00  0.00000000E+00  0.00000000E+00
  0.00000000E+00  0.00000000E+00  0.00000000E+00
  0.00000000E+00  0.00000000E+00  0.00000000E+00
  0.00000000E+00  0.00000000E+00  0.00000000E+00
  0.00000000E+00  0.00000000E+00  0.00000000E+00
  0.00000000E+00  0.00000000E+00  0.00000000E+00
  0.00000000E+00  0.00000000E+00  0.00000000E+00
  0.00000000E+00  0.00000000E+00  0.00000000E+00
  0.00000000E+00  0.00000000E+00  0.00000000E+00
  0.00000000E+00  0.00000000E+00  0.00000000E+00
  0.00000000E+00  0.00000000E+00  0.00000000E+00
  0.00000000E+00  0.00000000E+00  0.00000000E+00
  0.00000000E+00  0.00000000E+00  0.00000000E+00
  0.00000000E+00  0.00000000E+00  0.00000000E+00
  0.00000000E+00  0.00000000E+00  0.00000000E+00
  0.00000000E+00  0.00000000E+00  0.00000000E+00
  0.00000000E+00  0.00000000E+00  0.00000000E+00
  0.00000000E+00  0.00000000E+00  0.00000000E+00
  0.00000000E+00  0.00000000E+00  0.00000000E+00
  0.00000000E+00  0.00000000E+00  0.00000000E+00
  0.00000000E+00  0.00000000E+00  0.00000000E+00
  0.00000000E+00  0.00000000E+00  0.00000000E+00
  0.00000000E+00  0.00000000E+00  0.00000000E+00
  0.00000000E+00  0.00000000E+00  0.00000000E+00
  0.00000000E+00  0.00000000E+00  0.00000000E+00
  0.00000000E+00  0.00000000E+00  0.00000000E+00
  0.00000000E+00  0.00000000E+00  0.00000000E+00
  0.00000000E+00  0.00000000E+00  0.00000000E+00
  0.00000000E+00  0.00000000E+00  0.00000000E+00
  0.00000000E+00  0.00000000E+00  0.00000000E+00
  0.00000000E+00  0.00000000E+00  0.00000000E+00
  0.00000000E+00  0.00000000E+00  0.00000000E+00
  0.00000000E+00  0.00000000E+00  0.00000000E+00
  0.00000000E+00  0.00000000E+00  0.00000000E+00
  0.00000000E+00  0.00000000E+00  0.00000000E+00
  0.00000000E+00  0.00000000E+00  0.00000000E+00
  0.00000000E+00  0.00000000E+00  0.00000000E+00
  0.00000000E+00  0.00000000E+00  0.00000000E+00
  0.00000000E+00  0.00000000E+00  0.00000000E+00
  0.00000000E+00  0.00000000E+00  0.00000000E+00
  0.00000000E+00  0.00000000E+00  0.00000000E+00
  0.00000000E+00  0.00000000E+00  0.00000000E+00
  0.00000000E+00  0.00000000E+00  0.00000000E+00
  0.00000000E+00  0.00000000E+00  0.00000000E+00
  0.00000000E+00  0.00000000E+00  0.00000000E+00
  0.00000000E+00  0.00000000E+00  0.00000000E+00
  0.00000000E+00  0.00000000E+00  0.00000000E+00
  0.00000000E+00  0.00000000E+00  0.00000000E+00
  0.00000000E+00  0.00000000E+00  0.00000000E+00
  0.00000000E+00  0.00000000E+00  0.00000000E+00
  0.00000000E+00  0.00000000E+00  0.00000000E+00
  0.00000000E+00  0.00000000E+00  0.00000000E+00
  0.00000000E+00  0.00000000E+00  0.00000000E+00
  0.00000000E+00  0.00000000E+00  0.00000000E+00
  0.00000000E+00  0.00000000E+00  0.00000000E+00
  0.00000000E+00  0.00000000E+00  0.00000000E+00
  0.00000000E+00  0.00000000E+00  0.00000000E+00
  0.00000000E+00  0.00000000E+00  0.00000000E+00
  0.00000000E+00  0.00000000E+00  0.00000000E+00
  0.00000000E+00  0.00000000E+00  0.00000000E+00
  0.00000000E+00  0.00000000E+00  0.00000000E+00
  0.00000000E+00  0.00000000E+00  0.00000000E+00
  0.00000000E+00  0.00000000E+00  0.00000000E+00
