C    H    N    O                        
   1.00000000000000     
    17.2710380553999983    0.0000000000000000    0.0000000000000000
    -8.6355190276999991   14.9571577057000002    0.0000000000000000
     0.0000000000000000    0.0000000000000000   15.0000000000000000
  C/253f7b50bb8d  H/030f79b5d3ab  N/e053789ff3a6  O/818f92134a0a
              84               6               4               1
Selective dynamics
Direct
  0.0015041927950321  0.0006882426219263  0.5005603407357100   T   T   T
  0.0010006342585314  0.1431664716784411  0.5003931270138366   T   T   T
  0.0006507413785357  0.2860007764858992  0.5003018897449749   T   T   T
  0.0009790669646961  0.4291634686858856  0.5002309988348870   T   T   T
  0.0014574609181750  0.5721298499848544  0.5002900886225774   T   T   T
  0.0018298221731641  0.7149903024043525  0.5004285122098580   T   T   T
  0.0018610484104471  0.8582225850595933  0.5004998448795774   T   T   T
  0.1452720862229242  0.0018283555271950  0.4997719943893060   T   T   T
  0.1448431459860018  0.1445350821137978  0.4993841310980045   T   T   T
  0.1429860659493798  0.2859717342399009  0.4990006776422433   T   T   T
  0.1429816823506513  0.4283374429584086  0.4989147646397569   T   T   T
  0.1448402227901582  0.5716008682639853  0.4991479401151935   T   T   T
  0.1452538521604438  0.7147350170135169  0.4996814661996325   T   T   T
  0.1451806198278760  0.8582556793396634  0.4999958033395018   T   T   T
  0.2881641065001688  0.0018808345205059  0.4994448663616993   T   T   T
  0.2884393826461817  0.1465596002676364  0.4985152855620214   T   T   T
  0.2877583978637901  0.2927458578346744  0.4969820072410300   T   T   T
  0.2855864618888191  0.4284433672853964  0.4960393285881040   T   T   T
  0.2877824405792495  0.5663512432405042  0.4969277598354651   T   T   T
  0.2884865899461744  0.7132657585821534  0.4985484119992236   T   T   T
  0.2881716462880348  0.8576479894701450  0.4995623008851524   T   T   T
  0.4307061527590932  0.0010172903771206  0.4995644343865067   T   T   T
  0.4313535264071362  0.1456964490946504  0.4992108054441644   T   T   T
  0.4305438961213710  0.2873185390143576  0.4988033283109345   T   T   T
  0.4305769931351620  0.7145465908926170  0.4988425238131597   T   T   T
  0.4314030021964044  0.8570135570428334  0.4993045055975855   T   T   T
  0.5730174440788787  0.0005825860204567  0.4999940824957179   T   T   T
  0.5729954631551877  0.1437615709588727  0.4999868933288738   T   T   T
  0.5766502114677863  0.2902733835895006  0.4998529111685457   T   T   T
  0.5767175658766064  0.8577210957519554  0.4998705225407107   T   T   T
  0.7159125943667064  0.0010228825812533  0.5004894466038294   T   T   T
  0.7157307415880894  0.1435325124570355  0.5005941048855647   T   T   T
  0.7159069275274490  0.2862282086224184  0.5004993049952304   T   T   T
  0.7119124979186466  0.4256988470834031  0.4999158977450904   T   T   T
  0.7162104132550482  0.5724364753830002  0.4977341649419671   T   T   T
  0.7162660226092328  0.7151766485223803  0.4977461261276730   T   T   T
  0.7119918168437493  0.8575912733003008  0.4999339566661476   T   T   T
  0.8582827664489585  0.0003146038948358  0.5006782439438382   T   T   T
  0.8582845724841306  0.1433705181997524  0.5007925238881583   T   T   T
  0.8582751189006714  0.2862293054701084  0.5008388878634378   T   T   T
  0.8582490688923983  0.4293038035410603  0.5005856344151098   T   T   T
  0.8574595966261640  0.5715527069577675  0.5003275465454209   T   T   T
  0.8588282642689009  0.7151039149747973  0.4999625982001490   T   T   T
  0.8575403088391411  0.8573283934040674  0.5003612867035585   T   T   T
  0.0493092460589466  0.0961464488909272  0.5002127176928113   T   T   T
  0.0478558379960035  0.2381720913280603  0.4999864657512703   T   T   T
  0.0478703972595085  0.3810472333636312  0.4998924841220074   T   T   T
  0.0492835205671085  0.5244835829344154  0.4999326806428996   T   T   T
  0.0496224072528193  0.6674671960922112  0.5001893683328902   T   T   T
  0.0495178723396066  0.8104283068704490  0.5003269026653143   T   T   T
  0.0496570556189724  0.9535055787927575  0.5003569155485863   T   T   T
  0.1928839936256566  0.0972634268240498  0.4991321582113528   T   T   T
  0.1918279356101777  0.2400478974436311  0.4986102984220508   T   T   T
  0.1899282295724447  0.3806228088244055  0.4983007915732074   T   T   T
  0.1918364317630150  0.5230900641379392  0.4984736839556945   T   T   T
  0.1928981099776905  0.6669336932803489  0.4990059579047852   T   T   T
  0.1928763005450875  0.8103515109772985  0.4997432305056009   T   T   T
  0.1928946974877448  0.9538454187233043  0.4997126692840155   T   T   T
  0.3359760268437668  0.0982978980641391  0.4990417202453443   T   T   T
  0.3369794970222202  0.2431168811799935  0.4978200588641073   T   T   T
  0.3370062187513696  0.6652185022546462  0.4978408921689521   T   T   T
  0.3359992124992957  0.8090620159981938  0.4991508829495004   T   T   T
  0.3353084627114953  0.9533379911653412  0.4995465591666175   T   T   T
  0.4780093026304968  0.0965485966013802  0.4995855515026264   T   T   T
  0.4788137988922188  0.2416851263690347  0.4993226337373926   T   T   T
  0.4788594981513299  0.8084526553040092  0.4993592066040833   T   T   T
  0.4780400435590337  0.9528306651056511  0.4996197147828454   T   T   T
  0.6203108073455823  0.0958248214098276  0.5002117458350384   T   T   T
  0.6211327547563599  0.2393421539425375  0.5001344354231492   T   T   T
  0.6211700610296589  0.9531386609199259  0.5001484776853786   T   T   T
  0.7634198316333212  0.0962501089539103  0.5006825230319265   T   T   T
  0.7634214748827830  0.2384976524439892  0.5007439215229113   T   T   T
  0.7627746851962343  0.3810723331460721  0.5004166939666277   T   T   T
  0.7609078466230841  0.5239973179960131  0.4995057063862092   T   T   T
  0.7629401197633428  0.6671459381119789  0.4984121037131644   T   T   T
  0.7610006321949427  0.8083206068738491  0.4994926812305991   T   T   T
  0.7628200907545235  0.9530739566978070  0.5004441917206464   T   T   T
  0.9057410435951141  0.0953452020394039  0.5007109316002598   T   T   T
  0.9056098198196736  0.2384526147994990  0.5007966022692898   T   T   T
  0.9057099389377896  0.3817069845770362  0.5006340624692314   T   T   T
  0.9059051855862066  0.5246695212679313  0.5005426891847051   T   T   T
  0.9059264646169680  0.6670689633155433  0.5003698414105600   T   T   T
  0.9059636794627366  0.8102565624219906  0.5003689828467017   T   T   T
  0.9059700527260404  0.9526581035786066  0.5007120566153844   T   T   T
  0.4683626859837062  0.3600742656739016  0.4998035454865857   T   T   T
  0.6433587128485883  0.6778026002307911  0.4952362127466401   T   T   T
  0.6433032831892262  0.5369427361050256  0.4951885067736796   T   T   T
  0.4683686777713731  0.6795798099480379  0.4998329394974448   T   T   T
  0.4615128487479012  0.5592965879745293  0.4462267278071437   T   T   T
  0.4613280178295796  0.4734984756656218  0.4464062804291586   T   T   T
  0.3319180971532063  0.3830700674632439  0.4947521478668833   T   T   T
  0.3319218436793108  0.5201654027390603  0.4947435403861107   T   T   T
  0.6219379339984386  0.3806162865046758  0.4998394200646743   T   T   T
  0.6220110858191390  0.8126787059527061  0.4998521317123448   T   T   T
  0.5014171656538338  0.5363135660076210  0.4302241371666824   T   T   F
 
  0.00000000E+00  0.00000000E+00  0.00000000E+00
  0.00000000E+00  0.00000000E+00  0.00000000E+00
  0.00000000E+00  0.00000000E+00  0.00000000E+00
  0.00000000E+00  0.00000000E+00  0.00000000E+00
  0.00000000E+00  0.00000000E+00  0.00000000E+00
  0.00000000E+00  0.00000000E+00  0.00000000E+00
  0.00000000E+00  0.00000000E+00  0.00000000E+00
  0.00000000E+00  0.00000000E+00  0.00000000E+00
  0.00000000E+00  0.00000000E+00  0.00000000E+00
  0.00000000E+00  0.00000000E+00  0.00000000E+00
  0.00000000E+00  0.00000000E+00  0.00000000E+00
  0.00000000E+00  0.00000000E+00  0.00000000E+00
  0.00000000E+00  0.00000000E+00  0.00000000E+00
  0.00000000E+00  0.00000000E+00  0.00000000E+00
  0.00000000E+00  0.00000000E+00  0.00000000E+00
  0.00000000E+00  0.00000000E+00  0.00000000E+00
  0.00000000E+00  0.00000000E+00  0.00000000E+00
  0.00000000E+00  0.00000000E+00  0.00000000E+00
  0.00000000E+00  0.00000000E+00  0.00000000E+00
  0.00000000E+00  0.00000000E+00  0.00000000E+00
  0.00000000E+00  0.00000000E+00  0.00000000E+00
  0.00000000E+00  0.00000000E+00  0.00000000E+00
  0.00000000E+00  0.00000000E+00  0.00000000E+00
  0.00000000E+00  0.00000000E+00  0.00000000E+00
  0.00000000E+00  0.00000000E+00  0.00000000E+00
  0.00000000E+00  0.00000000E+00  0.00000000E+00
  0.00000000E+00  0.00000000E+00  0.00000000E+00
  0.00000000E+00  0.00000000E+00  0.00000000E+00
  0.00000000E+00  0.00000000E+00  0.00000000E+00
  0.00000000E+00  0.00000000E+00  0.00000000E+00
  0.00000000E+00  0.00000000E+00  0.00000000E+00
  0.00000000E+00  0.00000000E+00  0.00000000E+00
  0.00000000E+00  0.00000000E+00  0.00000000E+00
  0.00000000E+00  0.00000000E+00  0.00000000E+00
  0.00000000E+00  0.00000000E+00  0.00000000E+00
  0.00000000E+00  0.00000000E+00  0.00000000E+00
  0.00000000E+00  0.00000000E+00  0.00000000E+00
  0.00000000E+00  0.00000000E+00  0.00000000E+00
  0.00000000E+00  0.00000000E+00  0.00000000E+00
  0.00000000E+00  0.00000000E+00  0.00000000E+00
  0.00000000E+00  0.00000000E+00  0.00000000E+00
  0.00000000E+00  0.00000000E+00  0.00000000E+00
  0.00000000E+00  0.00000000E+00  0.00000000E+00
  0.00000000E+00  0.00000000E+00  0.00000000E+00
  0.00000000E+00  0.00000000E+00  0.00000000E+00
  0.00000000E+00  0.00000000E+00  0.00000000E+00
  0.00000000E+00  0.00000000E+00  0.00000000E+00
  0.00000000E+00  0.00000000E+00  0.00000000E+00
  0.00000000E+00  0.00000000E+00  0.00000000E+00
  0.00000000E+00  0.00000000E+00  0.00000000E+00
  0.00000000E+00  0.00000000E+00  0.00000000E+00
  0.00000000E+00  0.00000000E+00  0.00000000E+00
  0.00000000E+00  0.00000000E+00  0.00000000E+00
  0.00000000E+00  0.00000000E+00  0.00000000E+00
  0.00000000E+00  0.00000000E+00  0.00000000E+00
  0.00000000E+00  0.00000000E+00  0.00000000E+00
  0.00000000E+00  0.00000000E+00  0.00000000E+00
  0.00000000E+00  0.00000000E+00  0.00000000E+00
  0.00000000E+00  0.00000000E+00  0.00000000E+00
  0.00000000E+00  0.00000000E+00  0.00000000E+00
  0.00000000E+00  0.00000000E+00  0.00000000E+00
  0.00000000E+00  0.00000000E+00  0.00000000E+00
  0.00000000E+00  0.00000000E+00  0.00000000E+00
  0.00000000E+00  0.00000000E+00  0.00000000E+00
  0.00000000E+00  0.00000000E+00  0.00000000E+00
  0.00000000E+00  0.00000000E+00  0.00000000E+00
  0.00000000E+00  0.00000000E+00  0.00000000E+00
  0.00000000E+00  0.00000000E+00  0.00000000E+00
  0.00000000E+00  0.00000000E+00  0.00000000E+00
  0.00000000E+00  0.00000000E+00  0.00000000E+00
  0.00000000E+00  0.00000000E+00  0.00000000E+00
  0.00000000E+00  0.00000000E+00  0.00000000E+00
  0.00000000E+00  0.00000000E+00  0.00000000E+00
  0.00000000E+00  0.00000000E+00  0.00000000E+00
  0.00000000E+00  0.00000000E+00  0.00000000E+00
  0.00000000E+00  0.00000000E+00  0.00000000E+00
  0.00000000E+00  0.00000000E+00  0.00000000E+00
  0.00000000E+00  0.00000000E+00  0.00000000E+00
  0.00000000E+00  0.00000000E+00  0.00000000E+00
  0.00000000E+00  0.00000000E+00  0.00000000E+00
  0.00000000E+00  0.00000000E+00  0.00000000E+00
  0.00000000E+00  0.00000000E+00  0.00000000E+00
  0.00000000E+00  0.00000000E+00  0.00000000E+00
  0.00000000E+00  0.00000000E+00  0.00000000E+00
  0.00000000E+00  0.00000000E+00  0.00000000E+00
  0.00000000E+00  0.00000000E+00  0.00000000E+00
  0.00000000E+00  0.00000000E+00  0.00000000E+00
  0.00000000E+00  0.00000000E+00  0.00000000E+00
  0.00000000E+00  0.00000000E+00  0.00000000E+00
  0.00000000E+00  0.00000000E+00  0.00000000E+00
  0.00000000E+00  0.00000000E+00  0.00000000E+00
  0.00000000E+00  0.00000000E+00  0.00000000E+00
  0.00000000E+00  0.00000000E+00  0.00000000E+00
  0.00000000E+00  0.00000000E+00  0.00000000E+00
  0.00000000E+00  0.00000000E+00  0.00000000E+00
