C    H    N    O                        
    1.000000000000000     
    17.2710380553999983    0.0000000000000000    0.0000000000000000
    -8.6355190276999991   14.9571577057000002    0.0000000000000000
     0.0000000000000000    0.0000000000000000   15.0000000000000000
   C    H    N    O 
    84     6     4     1
Selective dynamics
Direct
  0.0015041927950300  0.0006882426219242  0.5005603407357113   T   T   T
  0.0010006342585345  0.1431664716784422  0.5003931270138360   T   T   T
  0.0006507413785333  0.2860007764858992  0.5003018897449734   T   T   T
  0.0009790669646948  0.4291634686858888  0.5002309988348888   T   T   T
  0.0014574609181780  0.5721298499848532  0.5002900886225754   T   T   T
  0.0018298221731621  0.7149903024043509  0.5004285122098573   T   T   T
  0.0018610484104454  0.8582225850595941  0.5004998448795791   T   T   T
  0.1452720862229274  0.0018283555271970  0.4997719943893080   T   T   T
  0.1448431459860029  0.1445350821138007  0.4993841310980027   T   T   T
  0.1429860659493823  0.2859717342398974  0.4990006776422410   T   T   T
  0.1429816823506548  0.4283374429584096  0.4989147646397554   T   T   T
  0.1448402227901588  0.5716008682639866  0.4991479401151944   T   T   T
  0.1452538521604437  0.7147350170135167  0.4996814661996344   T   T   T
  0.1451806198278777  0.8582556793396605  0.4999958033395053   T   T   T
  0.2881641065001675  0.0018808345205072  0.4994448663616974   T   T   T
  0.2884393826461790  0.1465596002676396  0.4985152855620221   T   T   T
  0.2877583978637868  0.2927458578346753  0.4969820072410306   T   T   T
  0.2855864618888199  0.4284433672853963  0.4960393285881045   T   T   T
  0.2877824405792492  0.5663512432405021  0.4969277598354633   T   T   T
  0.2884865899461752  0.7132657585821534  0.4985484119992249   T   T   T
  0.2881716462880330  0.8576479894701484  0.4995623008851535   T   T   T
  0.4307061527590915  0.0010172903771235  0.4995644343865038   T   T   T
  0.4313535264071335  0.1456964490946484  0.4992108054441655   T   T   T
  0.4305438961213717  0.2873185390143597  0.4988033283109348   T   T   T
  0.4305769931351630  0.7145465908926194  0.4988425238131601   T   T   T
  0.4314030021964045  0.8570135570428333  0.4993045055975861   T   T   T
  0.5730174440788778  0.0005825860204589  0.4999940824957154   T   T   T
  0.5729954631551903  0.1437615709588757  0.4999868933288727   T   T   T
  0.5766502114677866  0.2902733835894972  0.4998529111685484   T   T   T
  0.5767175658766076  0.8577210957519590  0.4998705225407133   T   T   T
  0.7159125943667085  0.0010228825812502  0.5004894466038307   T   T   T
  0.7157307415880902  0.1435325124570333  0.5005941048855630   T   T   T
  0.7159069275274490  0.2862282086224164  0.5004993049952307   T   T   T
  0.7119124979186465  0.4256988470834049  0.4999158977450873   T   T   T
  0.7162104132550473  0.5724364753829977  0.4977341649419669   T   T   T
  0.7162660226092330  0.7151766485223804  0.4977461261276739   T   T   T
  0.7119918168437468  0.8575912733003030  0.4999339566661465   T   T   T
  0.8582827664489568  0.0003146038948345  0.5006782439438378   T   T   T
  0.8582845724841336  0.1433705181997548  0.5007925238881572   T   T   T
  0.8582751189006701  0.2862293054701116  0.5008388878634380   T   T   T
  0.8582490688923983  0.4293038035410576  0.5005856344151093   T   T   T
  0.8574595966261664  0.5715527069577683  0.5003275465454228   T   T   T
  0.8588282642689012  0.7151039149747955  0.4999625982001464   T   T   T
  0.8575403088391440  0.8573283934040686  0.5003612867035618   T   T   T
  0.0493092460589441  0.0961464488909258  0.5002127176928093   T   T   T
  0.0478558379960002  0.2381720913280591  0.4999864657512671   T   T   T
  0.0478703972595109  0.3810472333636289  0.4998924841220107   T   T   T
  0.0492835205671107  0.5244835829344157  0.4999326806429018   T   T   T
  0.0496224072528173  0.6674671960922101  0.5001893683328915   T   T   T
  0.0495178723396036  0.8104283068704472  0.5003269026653157   T   T   T
  0.0496570556189696  0.9535055787927557  0.5003569155485855   T   T   T
  0.1928839936256565  0.0972634268240513  0.4991321582113536   T   T   T
  0.1918279356101768  0.2400478974436304  0.4986102984220499   T   T   T
  0.1899282295724422  0.3806228088244030  0.4983007915732067   T   T   T
  0.1918364317630115  0.5230900641379405  0.4984736839556915   T   T   T
  0.1928981099776908  0.6669336932803506  0.4990059579047855   T   T   T
  0.1928763005450858  0.8103515109772972  0.4997432305056035   T   T   T
  0.1928946974877426  0.9538454187233041  0.4997126692840159   T   T   T
  0.3359760268437635  0.0982978980641399  0.4990417202453427   T   T   T
  0.3369794970222174  0.2431168811799933  0.4978200588641107   T   T   T
  0.3370062187513678  0.6652185022546462  0.4978408921689513   T   T   T
  0.3359992124992954  0.8090620159981933  0.4991508829494993   T   T   T
  0.3353084627114944  0.9533379911653421  0.4995465591666186   T   T   T
  0.4780093026304957  0.0965485966013825  0.4995855515026230   T   T   T
  0.4788137988922158  0.2416851263690339  0.4993226337373934   T   T   T
  0.4788594981513317  0.8084526553040078  0.4993592066040864   T   T   T
  0.4780400435590321  0.9528306651056480  0.4996197147828444   T   T   T
  0.6203108073455842  0.0958248214098251  0.5002117458350392   T   T   T
  0.6211327547563625  0.2393421539425365  0.5001344354231478   T   T   T
  0.6211700610296607  0.9531386609199294  0.5001484776853763   T   T   T
  0.7634198316333219  0.0962501089539123  0.5006825230319292   T   T   T
  0.7634214748827798  0.2384976524439891  0.5007439215229099   T   T   T
  0.7627746851962312  0.3810723331460694  0.5004166939666244   T   T   T
  0.7609078466230857  0.5239973179960119  0.4995057063862096   T   T   T
  0.7629401197633424  0.6671459381119779  0.4984121037131666   T   T   T
  0.7610006321949393  0.8083206068738469  0.4994926812305989   T   T   T
  0.7628200907545266  0.9530739566978041  0.5004441917206487   T   T   T
  0.9057410435951136  0.0953452020394049  0.5007109316002603   T   T   T
  0.9056098198196745  0.2384526147994997  0.5007966022692879   T   T   T
  0.9057099389377881  0.3817069845770376  0.5006340624692286   T   T   T
  0.9059051855862078  0.5246695212679333  0.5005426891847065   T   T   T
  0.9059264646169662  0.6670689633155452  0.5003698414105597   T   T   T
  0.9059636794627351  0.8102565624219892  0.5003689828467037   T   T   T
  0.9059700527260437  0.9526581035786041  0.5007120566153873   T   T   T
  0.4683626859837055  0.3600742656739027  0.4998035454865862   T   T   T
  0.6433587128485914  0.6778026002307918  0.4952362127466403   T   T   T
  0.6433032831892280  0.5369427361050235  0.4951885067736826   T   T   T
  0.4683686777713710  0.6795798099480373  0.4998329394974477   T   T   T
  0.4615128487479025  0.5592965879745300  0.4462267278071457   T   T   T
  0.4613280178295798  0.4734984756656220  0.4464062804291575   T   T   T
  0.3319180971532064  0.3830700674632467  0.4947521478668827   T   T   T
  0.3319218436793129  0.5201654027390638  0.4947435403861117   T   T   T
  0.6219379339984364  0.3806162865046752  0.4998394200646764   T   T   T
  0.6220110858191401  0.8126787059527077  0.4998521317123473   T   T   T
  0.5014171656538368  0.5363135660076218  0.4302241371666824   T   T   F
 
  0.00000000E+00  0.00000000E+00  0.00000000E+00
  0.00000000E+00  0.00000000E+00  0.00000000E+00
  0.00000000E+00  0.00000000E+00  0.00000000E+00
  0.00000000E+00  0.00000000E+00  0.00000000E+00
  0.00000000E+00  0.00000000E+00  0.00000000E+00
  0.00000000E+00  0.00000000E+00  0.00000000E+00
  0.00000000E+00  0.00000000E+00  0.00000000E+00
  0.00000000E+00  0.00000000E+00  0.00000000E+00
  0.00000000E+00  0.00000000E+00  0.00000000E+00
  0.00000000E+00  0.00000000E+00  0.00000000E+00
  0.00000000E+00  0.00000000E+00  0.00000000E+00
  0.00000000E+00  0.00000000E+00  0.00000000E+00
  0.00000000E+00  0.00000000E+00  0.00000000E+00
  0.00000000E+00  0.00000000E+00  0.00000000E+00
  0.00000000E+00  0.00000000E+00  0.00000000E+00
  0.00000000E+00  0.00000000E+00  0.00000000E+00
  0.00000000E+00  0.00000000E+00  0.00000000E+00
  0.00000000E+00  0.00000000E+00  0.00000000E+00
  0.00000000E+00  0.00000000E+00  0.00000000E+00
  0.00000000E+00  0.00000000E+00  0.00000000E+00
  0.00000000E+00  0.00000000E+00  0.00000000E+00
  0.00000000E+00  0.00000000E+00  0.00000000E+00
  0.00000000E+00  0.00000000E+00  0.00000000E+00
  0.00000000E+00  0.00000000E+00  0.00000000E+00
  0.00000000E+00  0.00000000E+00  0.00000000E+00
  0.00000000E+00  0.00000000E+00  0.00000000E+00
  0.00000000E+00  0.00000000E+00  0.00000000E+00
  0.00000000E+00  0.00000000E+00  0.00000000E+00
  0.00000000E+00  0.00000000E+00  0.00000000E+00
  0.00000000E+00  0.00000000E+00  0.00000000E+00
  0.00000000E+00  0.00000000E+00  0.00000000E+00
  0.00000000E+00  0.00000000E+00  0.00000000E+00
  0.00000000E+00  0.00000000E+00  0.00000000E+00
  0.00000000E+00  0.00000000E+00  0.00000000E+00
  0.00000000E+00  0.00000000E+00  0.00000000E+00
  0.00000000E+00  0.00000000E+00  0.00000000E+00
  0.00000000E+00  0.00000000E+00  0.00000000E+00
  0.00000000E+00  0.00000000E+00  0.00000000E+00
  0.00000000E+00  0.00000000E+00  0.00000000E+00
  0.00000000E+00  0.00000000E+00  0.00000000E+00
  0.00000000E+00  0.00000000E+00  0.00000000E+00
  0.00000000E+00  0.00000000E+00  0.00000000E+00
  0.00000000E+00  0.00000000E+00  0.00000000E+00
  0.00000000E+00  0.00000000E+00  0.00000000E+00
  0.00000000E+00  0.00000000E+00  0.00000000E+00
  0.00000000E+00  0.00000000E+00  0.00000000E+00
  0.00000000E+00  0.00000000E+00  0.00000000E+00
  0.00000000E+00  0.00000000E+00  0.00000000E+00
  0.00000000E+00  0.00000000E+00  0.00000000E+00
  0.00000000E+00  0.00000000E+00  0.00000000E+00
  0.00000000E+00  0.00000000E+00  0.00000000E+00
  0.00000000E+00  0.00000000E+00  0.00000000E+00
  0.00000000E+00  0.00000000E+00  0.00000000E+00
  0.00000000E+00  0.00000000E+00  0.00000000E+00
  0.00000000E+00  0.00000000E+00  0.00000000E+00
  0.00000000E+00  0.00000000E+00  0.00000000E+00
  0.00000000E+00  0.00000000E+00  0.00000000E+00
  0.00000000E+00  0.00000000E+00  0.00000000E+00
  0.00000000E+00  0.00000000E+00  0.00000000E+00
  0.00000000E+00  0.00000000E+00  0.00000000E+00
  0.00000000E+00  0.00000000E+00  0.00000000E+00
  0.00000000E+00  0.00000000E+00  0.00000000E+00
  0.00000000E+00  0.00000000E+00  0.00000000E+00
  0.00000000E+00  0.00000000E+00  0.00000000E+00
  0.00000000E+00  0.00000000E+00  0.00000000E+00
  0.00000000E+00  0.00000000E+00  0.00000000E+00
  0.00000000E+00  0.00000000E+00  0.00000000E+00
  0.00000000E+00  0.00000000E+00  0.00000000E+00
  0.00000000E+00  0.00000000E+00  0.00000000E+00
  0.00000000E+00  0.00000000E+00  0.00000000E+00
  0.00000000E+00  0.00000000E+00  0.00000000E+00
  0.00000000E+00  0.00000000E+00  0.00000000E+00
  0.00000000E+00  0.00000000E+00  0.00000000E+00
  0.00000000E+00  0.00000000E+00  0.00000000E+00
  0.00000000E+00  0.00000000E+00  0.00000000E+00
  0.00000000E+00  0.00000000E+00  0.00000000E+00
  0.00000000E+00  0.00000000E+00  0.00000000E+00
  0.00000000E+00  0.00000000E+00  0.00000000E+00
  0.00000000E+00  0.00000000E+00  0.00000000E+00
  0.00000000E+00  0.00000000E+00  0.00000000E+00
  0.00000000E+00  0.00000000E+00  0.00000000E+00
  0.00000000E+00  0.00000000E+00  0.00000000E+00
  0.00000000E+00  0.00000000E+00  0.00000000E+00
  0.00000000E+00  0.00000000E+00  0.00000000E+00
  0.00000000E+00  0.00000000E+00  0.00000000E+00
  0.00000000E+00  0.00000000E+00  0.00000000E+00
  0.00000000E+00  0.00000000E+00  0.00000000E+00
  0.00000000E+00  0.00000000E+00  0.00000000E+00
  0.00000000E+00  0.00000000E+00  0.00000000E+00
  0.00000000E+00  0.00000000E+00  0.00000000E+00
  0.00000000E+00  0.00000000E+00  0.00000000E+00
  0.00000000E+00  0.00000000E+00  0.00000000E+00
  0.00000000E+00  0.00000000E+00  0.00000000E+00
  0.00000000E+00  0.00000000E+00  0.00000000E+00
  0.00000000E+00  0.00000000E+00  0.00000000E+00
