C4                                      
    1.000000000000000     
    17.2710380553999983    0.0000000000000000    0.0000000000000000
    -8.6355190276999991   14.9571577057000002    0.0000000000000000
     0.0000000000000000    0.0000000000000000   15.0000000000000000
   C    H    N 
    86     6     2
Direct
 -0.0000100803339617  0.0000992092217100  0.2499999951826730
 -0.0004872684676095  0.1426628657874313  0.2499999555378923
 -0.0004604722334598  0.2855935684577331  0.2499999186313938
 -0.0003519635256868  0.4285666852175521  0.2499999210355235
 -0.0001597322331380  0.5715971812028515  0.2499999728784479
  0.0008190165877988  0.7149304844064421  0.2500000419046561
  0.0014046619537807  0.8581277882320862  0.2500000282839283
  0.1434689011350085  0.0007241391545070  0.2500000033151143
  0.1429413403948194  0.1434710562328905  0.2499999833650902
  0.1423920213504072  0.2859278821512425  0.2499999650706529
  0.1427305771793181  0.4292116475160220  0.2499999559658053
  0.1429601666873407  0.5715775670071858  0.2499999463560146
  0.1431591743893895  0.7144509710699060  0.2499999645688636
  0.1434375639350139  0.8576033594186520  0.2500000135301854
  0.2858678573155123  0.0000714635097974  0.2500000075912408
  0.2859096831147712  0.1430188281769505  0.2500000194726272
  0.2862460996313748  0.2877407854422604  0.2500000334004994
  0.2850082541361079  0.4291977198350067  0.2500000273856582
  0.2874937792371521  0.5721911831567194  0.2500000166426380
  0.2859116551209834  0.7149909354401182  0.2499999797067732
  0.2855159365191152  0.8574989583850052  0.2499999949154904
  0.4287185304247614 -0.0004394357713718  0.2500000294084792
  0.4286808301374774  0.1423557480714566  0.2500000321308145
  0.4270910669167030  0.2821554385849350  0.2500000851885754
  0.4277359561097632  0.8561882009086734  0.2500000416419416
  0.5710192600616973 -0.0013335335972264  0.2500000057935605
  0.5715122440925042  0.1420110751822321  0.2500000087775041
  0.5724238047316020  0.2857186827198611  0.2500000692087835
  0.5700569290393904  0.8537556785622840  0.2500000334300337
  0.7130852927286251 -0.0024117284800749  0.2499999700669304
  0.7141101500076301  0.1419533684247946  0.2499999645656540
  0.7143343874536768  0.2856479656676682  0.2500000118662278
  0.7137021528702641  0.4286184728630633  0.2500000523351856
  0.7173146218366853  0.5760491765641140  0.2499999926507495
  0.7122417997051051  0.8538657083908641  0.2499999780519852
  0.8563631999112536 -0.0009938457734543  0.2499999688272132
  0.8564317104783155  0.1419956352813016  0.2499999409145387
  0.8567130122481893  0.2852722643195648  0.2499999441609984
  0.8570120058345244  0.4286864273456073  0.2499999858320624
  0.8571364155844179  0.5724086948101598  0.2500000138527053
  0.8590875326103422  0.7160787397670868  0.2499999917273537
  0.8576774429317001  0.8567263885988198  0.2499999863442815
  0.0476442051387413  0.0954929804761708  0.2499999763460723
  0.0468903762033004  0.2378289802833663  0.2499999388261763
  0.0471315168059505  0.3810582022955700  0.2499999180365989
  0.0475717506438544  0.5239379957045328  0.2499999351416611
  0.0479031634466125  0.6669956895698226  0.2499999981619589
  0.0484280586803309  0.8100839612742833  0.2500000406038768
  0.0482499344268988  0.9530013653537647  0.2500000115977891
  0.1906570982683984  0.0956098650782419  0.2499999973558432
  0.1903194432315328  0.2387325642149395  0.2499999899111748
  0.1894199088431441  0.3810631759804710  0.2499999837990794
  0.1910765889084021  0.5245994155870854  0.2499999731859264
  0.1905531414956549  0.6669156240549819  0.2499999524739130
  0.1906786979131965  0.8098250113096247  0.2499999836324535
  0.1909425976736518  0.9527440100838289  0.2500000068922875
  0.3335674334651976  0.0954363428221072  0.2500000165952934
  0.3342350534718767  0.2383232159720816  0.2500000519056657
  0.3306181463552668  0.3806732240288193  0.2500000467289501
  0.3318179774238891  0.5237037496071048  0.2500000395692754
  0.3366502144646835  0.6703047659246842  0.2500000182184949
  0.3329695055444340  0.8097477149964361  0.2500000056614117
  0.3333003201243241  0.9523914466495566  0.2500000151609633
  0.4763603801946634  0.0945987067909251  0.2500000213730014
  0.4757290012307893  0.2374291467838005  0.2500000705223532
  0.4722241035109451  0.8052409992629802  0.2500000531208174
  0.4760059509591711  0.9516151036701768  0.2500000337274645
  0.6186841737763245  0.0940398444940145  0.2499999857648126
  0.6192876659999579  0.2374909093967465  0.2500000313996933
  0.6209088697928449  0.3791345586722899  0.2500000740486518
  0.6187572092012862  0.8086449207384023  0.2500000164956209
  0.6176222002664011  0.9497205326350244  0.2500000014052696
  0.7611702729666150  0.0937496179283183  0.2499999521237599
  0.7616771497186143  0.2374267073850472  0.2499999700430286
  0.7618781175265228  0.3811622701768755  0.2500000273082764
  0.7612336242576582  0.5264469589856833  0.2500000241814081
  0.7635611284430277  0.6706517529991985  0.2499999672808429
  0.7616273432582183  0.8049091364809037  0.2499999640192430
  0.7608131254483970  0.9499024501502898  0.2499999675020855
  0.9040209231259633  0.0942240298281912  0.2499999546810766
  0.9041617984183780  0.2375258901550665  0.2499999278818030
  0.9042901266759590  0.3809291756221773  0.2499999439339832
  0.9044926859415070  0.5243023406994656  0.2499999936030689
  0.9054137293576908  0.6674873851635009  0.2500000202692189
  0.9063469638020395  0.8106246447430741  0.2500000036784941
  0.9045482474503528  0.9518574951686979  0.2499999884650548
  0.4634335985814835  0.3546459312970385  0.2500000747960293
  0.4033685757936790  0.4195210513728741  0.2500000493742517
  0.4047548187363965  0.5602884349492665  0.2500000435284541
  0.6446631856052945  0.5435809003761894  0.2500000033679134
  0.5846606554451975  0.4154178887689142  0.2500000559468598
  0.5826235962947279  0.7358635160396066  0.2500000259490094
  0.4266300518049805  0.7148765419353168  0.2500000497355674
  0.7168956479173531  0.7153767405347824  0.2499999531512744
 
  0.00000000E+00  0.00000000E+00  0.00000000E+00
  0.00000000E+00  0.00000000E+00  0.00000000E+00
  0.00000000E+00  0.00000000E+00  0.00000000E+00
  0.00000000E+00  0.00000000E+00  0.00000000E+00
  0.00000000E+00  0.00000000E+00  0.00000000E+00
  0.00000000E+00  0.00000000E+00  0.00000000E+00
  0.00000000E+00  0.00000000E+00  0.00000000E+00
  0.00000000E+00  0.00000000E+00  0.00000000E+00
  0.00000000E+00  0.00000000E+00  0.00000000E+00
  0.00000000E+00  0.00000000E+00  0.00000000E+00
  0.00000000E+00  0.00000000E+00  0.00000000E+00
  0.00000000E+00  0.00000000E+00  0.00000000E+00
  0.00000000E+00  0.00000000E+00  0.00000000E+00
  0.00000000E+00  0.00000000E+00  0.00000000E+00
  0.00000000E+00  0.00000000E+00  0.00000000E+00
  0.00000000E+00  0.00000000E+00  0.00000000E+00
  0.00000000E+00  0.00000000E+00  0.00000000E+00
  0.00000000E+00  0.00000000E+00  0.00000000E+00
  0.00000000E+00  0.00000000E+00  0.00000000E+00
  0.00000000E+00  0.00000000E+00  0.00000000E+00
  0.00000000E+00  0.00000000E+00  0.00000000E+00
  0.00000000E+00  0.00000000E+00  0.00000000E+00
  0.00000000E+00  0.00000000E+00  0.00000000E+00
  0.00000000E+00  0.00000000E+00  0.00000000E+00
  0.00000000E+00  0.00000000E+00  0.00000000E+00
  0.00000000E+00  0.00000000E+00  0.00000000E+00
  0.00000000E+00  0.00000000E+00  0.00000000E+00
  0.00000000E+00  0.00000000E+00  0.00000000E+00
  0.00000000E+00  0.00000000E+00  0.00000000E+00
  0.00000000E+00  0.00000000E+00  0.00000000E+00
  0.00000000E+00  0.00000000E+00  0.00000000E+00
  0.00000000E+00  0.00000000E+00  0.00000000E+00
  0.00000000E+00  0.00000000E+00  0.00000000E+00
  0.00000000E+00  0.00000000E+00  0.00000000E+00
  0.00000000E+00  0.00000000E+00  0.00000000E+00
  0.00000000E+00  0.00000000E+00  0.00000000E+00
  0.00000000E+00  0.00000000E+00  0.00000000E+00
  0.00000000E+00  0.00000000E+00  0.00000000E+00
  0.00000000E+00  0.00000000E+00  0.00000000E+00
  0.00000000E+00  0.00000000E+00  0.00000000E+00
  0.00000000E+00  0.00000000E+00  0.00000000E+00
  0.00000000E+00  0.00000000E+00  0.00000000E+00
  0.00000000E+00  0.00000000E+00  0.00000000E+00
  0.00000000E+00  0.00000000E+00  0.00000000E+00
  0.00000000E+00  0.00000000E+00  0.00000000E+00
  0.00000000E+00  0.00000000E+00  0.00000000E+00
  0.00000000E+00  0.00000000E+00  0.00000000E+00
  0.00000000E+00  0.00000000E+00  0.00000000E+00
  0.00000000E+00  0.00000000E+00  0.00000000E+00
  0.00000000E+00  0.00000000E+00  0.00000000E+00
  0.00000000E+00  0.00000000E+00  0.00000000E+00
  0.00000000E+00  0.00000000E+00  0.00000000E+00
  0.00000000E+00  0.00000000E+00  0.00000000E+00
  0.00000000E+00  0.00000000E+00  0.00000000E+00
  0.00000000E+00  0.00000000E+00  0.00000000E+00
  0.00000000E+00  0.00000000E+00  0.00000000E+00
  0.00000000E+00  0.00000000E+00  0.00000000E+00
  0.00000000E+00  0.00000000E+00  0.00000000E+00
  0.00000000E+00  0.00000000E+00  0.00000000E+00
  0.00000000E+00  0.00000000E+00  0.00000000E+00
  0.00000000E+00  0.00000000E+00  0.00000000E+00
  0.00000000E+00  0.00000000E+00  0.00000000E+00
  0.00000000E+00  0.00000000E+00  0.00000000E+00
  0.00000000E+00  0.00000000E+00  0.00000000E+00
  0.00000000E+00  0.00000000E+00  0.00000000E+00
  0.00000000E+00  0.00000000E+00  0.00000000E+00
  0.00000000E+00  0.00000000E+00  0.00000000E+00
  0.00000000E+00  0.00000000E+00  0.00000000E+00
  0.00000000E+00  0.00000000E+00  0.00000000E+00
  0.00000000E+00  0.00000000E+00  0.00000000E+00
  0.00000000E+00  0.00000000E+00  0.00000000E+00
  0.00000000E+00  0.00000000E+00  0.00000000E+00
  0.00000000E+00  0.00000000E+00  0.00000000E+00
  0.00000000E+00  0.00000000E+00  0.00000000E+00
  0.00000000E+00  0.00000000E+00  0.00000000E+00
  0.00000000E+00  0.00000000E+00  0.00000000E+00
  0.00000000E+00  0.00000000E+00  0.00000000E+00
  0.00000000E+00  0.00000000E+00  0.00000000E+00
  0.00000000E+00  0.00000000E+00  0.00000000E+00
  0.00000000E+00  0.00000000E+00  0.00000000E+00
  0.00000000E+00  0.00000000E+00  0.00000000E+00
  0.00000000E+00  0.00000000E+00  0.00000000E+00
  0.00000000E+00  0.00000000E+00  0.00000000E+00
  0.00000000E+00  0.00000000E+00  0.00000000E+00
  0.00000000E+00  0.00000000E+00  0.00000000E+00
  0.00000000E+00  0.00000000E+00  0.00000000E+00
  0.00000000E+00  0.00000000E+00  0.00000000E+00
  0.00000000E+00  0.00000000E+00  0.00000000E+00
  0.00000000E+00  0.00000000E+00  0.00000000E+00
  0.00000000E+00  0.00000000E+00  0.00000000E+00
  0.00000000E+00  0.00000000E+00  0.00000000E+00
  0.00000000E+00  0.00000000E+00  0.00000000E+00
  0.00000000E+00  0.00000000E+00  0.00000000E+00
  0.00000000E+00  0.00000000E+00  0.00000000E+00
