C4                                      
    1.000000000000000     
    17.2710380553999983    0.0000000000000000    0.0000000000000000
    -8.6355190276999991   14.9571577057000002    0.0000000000000000
     0.0000000000000000    0.0000000000000000   15.0000000000000000
   C    F    N 
    84     4     4
Direct
  0.0004293544236855  0.0003548269714545  0.2499975389265853
 -0.0011948949453910  0.1421913441475627  0.2500005287639052
 -0.0012670754669706  0.2855342529545170  0.2499981779724825
 -0.0008388301967499  0.4286020752501012  0.2499980022305185
 -0.0003347011058468  0.5713753997655886  0.2499968096514689
  0.0013321035112435  0.7145962752337076  0.2499975234645925
  0.0025354667767448  0.8588197787683296  0.2499957112820999
  0.1434902384860229 -0.0004224715005530  0.2499984164602068
  0.1419610510636202  0.1414490037332708  0.2500001951242792
  0.1396391922874765  0.2820078081729064  0.2500009693657769
  0.1419833616012207  0.4267521547809608  0.2499989074774183
  0.1444055627825132  0.5700950392015062  0.2499971935485107
  0.1442704539959929  0.7130927429259930  0.2499972129815197
  0.1438684702414429  0.8561306193416738  0.2499975725384532
  0.2852059279101007 -0.0021875737276733  0.2500001290969540
  0.2846359776267615  0.1409919010224559  0.2500015691161293
  0.2847006149471397  0.2858704650525491  0.2500036458312308
  0.2802317548603701  0.4175585077222912  0.2500007534252447
  0.2898144132159188  0.5673324862233506  0.2500002202022963
  0.2880863005672664  0.7126961274997304  0.2499996106041323
  0.2867206740027789  0.8556580915427726  0.2499970070732921
  0.4286392764913086 -0.0005451037843350  0.2499983436380958
  0.4263169897412425  0.1407659634943595  0.2499993635318446
  0.4305103731786956  0.7188082637158623  0.2500007985056329
  0.4305725585956981  0.8577370745665608  0.2500001413901271
  0.5720823319366264  0.0009011732032363  0.2499956526710608
  0.5703990297371979  0.1424381119261587  0.2499970697565102
  0.5675617320489463  0.2831960900985295  0.2500004071933050
  0.5774758882794714  0.8594832867088220  0.2499978030073197
  0.7155880007013043  0.0021466646347975  0.2499972346981552
  0.7140961522545324  0.1443304125582592  0.2499952684360070
  0.7123325911480196  0.2868946589472304  0.2499980789941545
  0.7105487790806282  0.4298426667235540  0.2500048441820808
  0.7189063362358949  0.5832074531594343  0.2500195204987121
  0.7126317940975800  0.8588792804137392  0.2499992521904073
  0.8574763955463255  0.0011263273788985  0.2500006476504010
  0.8568537120162487  0.1440328925044937  0.2499968865075717
  0.8559845990912883  0.2867672041019029  0.2499972957408193
  0.8553899992099696  0.4295914719045988  0.2499993766043573
  0.8554611328753174  0.5733890634344474  0.2500000416361273
  0.8616615558207124  0.7192979763932627  0.2499931613180934
  0.8588142111198080  0.8594221810927788  0.2499968407189846
  0.0471394032469743  0.0949998515333592  0.2499986431346027
  0.0450555433346317  0.2364325579785644  0.2499990137402478
  0.0464983335005140  0.3806072878680425  0.2499984588831567
  0.0480958075686718  0.5236777993103597  0.2499974685417128
  0.0486141198854907  0.6664909696625131  0.2499972941585170
  0.0489148916762082  0.8096801921140719  0.2499968063750450
  0.0487520201490976  0.9530901249262718  0.2499969140239717
  0.1898735343546839  0.0939746668929439  0.2500002624748658
  0.1886696335663518  0.2357789703881621  0.2500021975528914
  0.1862019772066058  0.3758866507175132  0.2500001982022599
  0.1923697135175603  0.5218179136394867  0.2499975940697793
  0.1922673728973481  0.6655393549561393  0.2499970782632490
  0.1916312363391794  0.8084178647958734  0.2499970623018145
  0.1906094165737885  0.9510373490952136  0.2499984680745375
  0.3317708208712116  0.0929558094362250  0.2500005567458076
  0.3346261526629210  0.2361902059402165  0.2500024752300228
  0.3289971969011624  0.5120739159750937  0.2500031223819864
  0.3369638441679700  0.6653661462655288  0.2499986618098236
  0.3351450757464274  0.8083115529252923  0.2499989214896843
  0.3333888032079659  0.9508113508817215  0.2499984740265176
  0.4753569170821584  0.0944236860635872  0.2499991933667517
  0.4698364757955138  0.2357653195825956  0.2500007655957458
  0.4798246927761130  0.8120060217020917  0.2500008841459331
  0.4770270364040459  0.9528622054089960  0.2499990973932307
  0.6187912133690424  0.0958485462881452  0.2499956144382556
  0.6168273428243993  0.2375074547067789  0.2499984587163639
  0.6168783188798359  0.3763767300090138  0.2500002459765422
  0.6210814081243621  0.9545161836768972  0.2499958891799595
  0.7622058753190561  0.0972253336046337  0.2499959307458104
  0.7608296124148538  0.2395298004562779  0.2499961745973242
  0.7595030389963178  0.3825163812073381  0.2500011858855690
  0.7580093511105597  0.5279359575962752  0.2500089580164932
  0.7676305430548250  0.6776716612180705  0.2500018895417709
  0.7627627834057814  0.8092603673522594  0.2499986712032142
  0.7627253142607490  0.9541231424743774  0.2499997590924807
  0.9040287904470301  0.0955747696922108  0.2499992721779979
  0.9037307145424019  0.2389986819749539  0.2499990239702818
  0.9034340203828214  0.3820858718090692  0.2499980067634810
  0.9033577693721004  0.5250518498852598  0.2499982021975867
  0.9059109049967446  0.6684213695650187  0.2499947745818153
  0.9079442107630735  0.8131979162009813  0.2499980180265171
  0.9055474474567362  0.9537971077640919  0.2499978095053176
  0.4161474899410597  0.5388530512232064  0.2500203212334459
  0.6317293761691128  0.5562017681445891  0.2500471232235167
  0.5664446956954641  0.4140786413636967  0.2500012188666534
  0.4806802017128464  0.6807892603766960  0.2500018288523658
  0.4237743005927568  0.2800846944555878  0.2500008341865869
  0.7195568291430173  0.7205525065513928  0.2500028713497536
  0.3281633648764326  0.3745808687279685  0.2500032899447767
  0.6235027785208117  0.8150786333652148  0.2499992917371009
 
  0.00000000E+00  0.00000000E+00  0.00000000E+00
  0.00000000E+00  0.00000000E+00  0.00000000E+00
  0.00000000E+00  0.00000000E+00  0.00000000E+00
  0.00000000E+00  0.00000000E+00  0.00000000E+00
  0.00000000E+00  0.00000000E+00  0.00000000E+00
  0.00000000E+00  0.00000000E+00  0.00000000E+00
  0.00000000E+00  0.00000000E+00  0.00000000E+00
  0.00000000E+00  0.00000000E+00  0.00000000E+00
  0.00000000E+00  0.00000000E+00  0.00000000E+00
  0.00000000E+00  0.00000000E+00  0.00000000E+00
  0.00000000E+00  0.00000000E+00  0.00000000E+00
  0.00000000E+00  0.00000000E+00  0.00000000E+00
  0.00000000E+00  0.00000000E+00  0.00000000E+00
  0.00000000E+00  0.00000000E+00  0.00000000E+00
  0.00000000E+00  0.00000000E+00  0.00000000E+00
  0.00000000E+00  0.00000000E+00  0.00000000E+00
  0.00000000E+00  0.00000000E+00  0.00000000E+00
  0.00000000E+00  0.00000000E+00  0.00000000E+00
  0.00000000E+00  0.00000000E+00  0.00000000E+00
  0.00000000E+00  0.00000000E+00  0.00000000E+00
  0.00000000E+00  0.00000000E+00  0.00000000E+00
  0.00000000E+00  0.00000000E+00  0.00000000E+00
  0.00000000E+00  0.00000000E+00  0.00000000E+00
  0.00000000E+00  0.00000000E+00  0.00000000E+00
  0.00000000E+00  0.00000000E+00  0.00000000E+00
  0.00000000E+00  0.00000000E+00  0.00000000E+00
  0.00000000E+00  0.00000000E+00  0.00000000E+00
  0.00000000E+00  0.00000000E+00  0.00000000E+00
  0.00000000E+00  0.00000000E+00  0.00000000E+00
  0.00000000E+00  0.00000000E+00  0.00000000E+00
  0.00000000E+00  0.00000000E+00  0.00000000E+00
  0.00000000E+00  0.00000000E+00  0.00000000E+00
  0.00000000E+00  0.00000000E+00  0.00000000E+00
  0.00000000E+00  0.00000000E+00  0.00000000E+00
  0.00000000E+00  0.00000000E+00  0.00000000E+00
  0.00000000E+00  0.00000000E+00  0.00000000E+00
  0.00000000E+00  0.00000000E+00  0.00000000E+00
  0.00000000E+00  0.00000000E+00  0.00000000E+00
  0.00000000E+00  0.00000000E+00  0.00000000E+00
  0.00000000E+00  0.00000000E+00  0.00000000E+00
  0.00000000E+00  0.00000000E+00  0.00000000E+00
  0.00000000E+00  0.00000000E+00  0.00000000E+00
  0.00000000E+00  0.00000000E+00  0.00000000E+00
  0.00000000E+00  0.00000000E+00  0.00000000E+00
  0.00000000E+00  0.00000000E+00  0.00000000E+00
  0.00000000E+00  0.00000000E+00  0.00000000E+00
  0.00000000E+00  0.00000000E+00  0.00000000E+00
  0.00000000E+00  0.00000000E+00  0.00000000E+00
  0.00000000E+00  0.00000000E+00  0.00000000E+00
  0.00000000E+00  0.00000000E+00  0.00000000E+00
  0.00000000E+00  0.00000000E+00  0.00000000E+00
  0.00000000E+00  0.00000000E+00  0.00000000E+00
  0.00000000E+00  0.00000000E+00  0.00000000E+00
  0.00000000E+00  0.00000000E+00  0.00000000E+00
  0.00000000E+00  0.00000000E+00  0.00000000E+00
  0.00000000E+00  0.00000000E+00  0.00000000E+00
  0.00000000E+00  0.00000000E+00  0.00000000E+00
  0.00000000E+00  0.00000000E+00  0.00000000E+00
  0.00000000E+00  0.00000000E+00  0.00000000E+00
  0.00000000E+00  0.00000000E+00  0.00000000E+00
  0.00000000E+00  0.00000000E+00  0.00000000E+00
  0.00000000E+00  0.00000000E+00  0.00000000E+00
  0.00000000E+00  0.00000000E+00  0.00000000E+00
  0.00000000E+00  0.00000000E+00  0.00000000E+00
  0.00000000E+00  0.00000000E+00  0.00000000E+00
  0.00000000E+00  0.00000000E+00  0.00000000E+00
  0.00000000E+00  0.00000000E+00  0.00000000E+00
  0.00000000E+00  0.00000000E+00  0.00000000E+00
  0.00000000E+00  0.00000000E+00  0.00000000E+00
  0.00000000E+00  0.00000000E+00  0.00000000E+00
  0.00000000E+00  0.00000000E+00  0.00000000E+00
  0.00000000E+00  0.00000000E+00  0.00000000E+00
  0.00000000E+00  0.00000000E+00  0.00000000E+00
  0.00000000E+00  0.00000000E+00  0.00000000E+00
  0.00000000E+00  0.00000000E+00  0.00000000E+00
  0.00000000E+00  0.00000000E+00  0.00000000E+00
  0.00000000E+00  0.00000000E+00  0.00000000E+00
  0.00000000E+00  0.00000000E+00  0.00000000E+00
  0.00000000E+00  0.00000000E+00  0.00000000E+00
  0.00000000E+00  0.00000000E+00  0.00000000E+00
  0.00000000E+00  0.00000000E+00  0.00000000E+00
  0.00000000E+00  0.00000000E+00  0.00000000E+00
  0.00000000E+00  0.00000000E+00  0.00000000E+00
  0.00000000E+00  0.00000000E+00  0.00000000E+00
  0.00000000E+00  0.00000000E+00  0.00000000E+00
  0.00000000E+00  0.00000000E+00  0.00000000E+00
  0.00000000E+00  0.00000000E+00  0.00000000E+00
  0.00000000E+00  0.00000000E+00  0.00000000E+00
  0.00000000E+00  0.00000000E+00  0.00000000E+00
  0.00000000E+00  0.00000000E+00  0.00000000E+00
  0.00000000E+00  0.00000000E+00  0.00000000E+00
  0.00000000E+00  0.00000000E+00  0.00000000E+00
