C4                                      
    1.000000000000000     
    17.2710380553999983    0.0000000000000000    0.0000000000000000
    -8.6355190276999991   14.9571577057000002    0.0000000000000000
     0.0000000000000000    0.0000000000000000   15.0000000000000000
   C    H    F 
    88     4     4
Direct
  0.0006125971986400  0.0001755593842923  0.2499985873537834
 -0.0013949160709398  0.1420634813068712  0.2500009375410174
 -0.0024609010880534  0.2845098930907847  0.2500022917228888
 -0.0014175295863238  0.4279911054540659  0.2500006047926090
  0.0006139581085442  0.5717837289239890  0.2499996987701759
  0.0031205626814870  0.7155412586860542  0.2499965761945313
  0.0030655635803265  0.8588614124416489  0.2499980377342591
  0.1433171372096753  0.0000238508379489  0.2500016424576730
  0.1414526080357229  0.1422032406335552  0.2500014607666280
  0.1384590002464566  0.2831225161307870  0.2499989348987617
  0.1385102094287556  0.4270233446689501  0.2500002386748286
  0.1414911122769911  0.5708040653501768  0.2500011263045528
  0.1433378660046173  0.7147429111182039  0.2499996155270773
  0.1444530254026205  0.8579123065171956  0.2500006482304670
  0.2860542358405933 -0.0000959212701982  0.2500014079542818
  0.2833631432162461  0.1405030757962384  0.2500038954748179
  0.2828411742675653  0.2856860188931422  0.2499994387949436
  0.2760393189166842  0.4238191735965063  0.2499956062062055
  0.2829793503007511  0.5687389569221406  0.2500002902641488
  0.2834239067245564  0.7143874322077685  0.2500012847821207
  0.2860850811594370  0.8576132088417106  0.2500013338533147
  0.4287838287643059  0.0001449052786528  0.2500008506438973
  0.4281571160265458  0.1427556564099139  0.2500008233721693
  0.4208006249488783  0.2768483935169144  0.2500051411465160
  0.4208775328251262  0.7155241091441006  0.2499983578683400
  0.4282205804090324  0.8569195147290853  0.2500005824510407
  0.5712684927012984 -0.0001883968017729  0.2499999856161182
  0.5712853400738473  0.1428492365726295  0.2499985489890343
  0.5721446205468865  0.2865220725073199  0.2500114356771334
  0.5722218476855029  0.8568740726463940  0.2500008958169272
  0.7145151647578347  0.0002216208360924  0.2500006237771692
  0.7137779730790020  0.1425708026448822  0.2500005445373574
  0.7144528580541796  0.2855764804944935  0.2499919711876911
  0.7186961648036077  0.4292896228211530  0.2499959812951912
  0.7233369183917645  0.5781286583891095  0.2499883595472689
  0.7233998218968649  0.7163490997257563  0.2499962799944213
  0.7187438233583490  0.8606706267797668  0.2499996597769731
  0.8583968599468447  0.0009637340581853  0.2500026056008771
  0.8561390687746189  0.1423560227443399  0.2500018056933205
  0.8560467902060732  0.2850383418379845  0.2499992748565517
  0.8583676263912545  0.4286785521144222  0.2499906968848827
  0.8600352572162101  0.5729621422010840  0.2499952218026784
  0.8645444126885042  0.7178490697217891  0.2499958520045505
  0.8599781998699009  0.8582170875276349  0.2499982201513453
  0.0468191056667600  0.0949792199295000  0.2500000184259347
  0.0443083308249544  0.2362561262930133  0.2500009974298010
  0.0442979229001345  0.3795473593506405  0.2500025345119186
  0.0468707782709238  0.5233190466950510  0.2500008022875838
  0.0488896590436977  0.6670998425875173  0.2499984363503967
  0.0498933478543611  0.8106185345400315  0.2499977092680908
  0.0488624779377415  0.9530970602686711  0.2499982804180135
  0.1890477895253648  0.0941172878878064  0.2500021999039057
  0.1873600250579350  0.2368700111479524  0.2500005509175993
  0.1828397403297688  0.3772619387245025  0.2499969395670325
  0.1874750699531546  0.5221834573103941  0.2500010096962736
  0.1890695979368534  0.6664264541032598  0.2500007596196110
  0.1913646478982224  0.8100192896953383  0.2500005907516777
  0.1913368992500355  0.9527130353182987  0.2500013498595736
  0.3329529666067329  0.0949134032650481  0.2500011236112124
  0.3287690345762146  0.2344647739895982  0.2500048814672608
  0.3239074364396446  0.3785596388284073  0.2499954881008701
  0.3240517652787597  0.5169258073904421  0.2499956271251340
  0.3288534859500738  0.6658512219662278  0.2499993421283336
  0.3330171726569660  0.8095931409725649  0.2500010985231245
  0.3336050177752153  0.9525118868289582  0.2500017623429915
  0.4761792485232054  0.0953113001757123  0.2499991820801589
  0.4753461177278227  0.2381932051975851  0.2500073675868051
  0.4754031979387254  0.8086595686743550  0.2500005409603099
  0.4761840034981610  0.9523522924747291  0.2500011511732778
  0.6186076454963761  0.0949721409131531  0.2499989011412978
  0.6192736450900548  0.2382187641640089  0.2499992586187639
  0.6266422308350473  0.3796062814139866  0.2500211567772324
  0.6266998706987554  0.8181788396069395  0.2500027755487266
  0.6192896734936868  0.9523188756944971  0.2500005538219606
  0.7613967161305076  0.0952339826421017  0.2500000900354231
  0.7612863421001067  0.2374932922262310  0.2499969402061141
  0.7640950480219764  0.3807623573824775  0.2499861103828999
  0.7645288696392204  0.5263981554028713  0.2499934182079792
  0.7713351005728536  0.6711986584039249  0.2499923645986486
  0.7645236433148719  0.8093010841204410  0.2499982255538735
  0.7641236130291538  0.9546364882079382  0.2499997305032056
  0.9041652173560075  0.0950469976807633  0.2500018059069263
  0.9030365755151698  0.2372004039742129  0.2500020680109518
  0.9040999205052324  0.3803649512615668  0.2499974280519577
  0.9059844063432612  0.5242866140420251  0.2499960252875555
  0.9088907592384454  0.6681048666794095  0.2499971477086796
  0.9088340779362970  0.8119817030757620  0.2499979073001879
  0.9059489157746853  0.9528841801513660  0.2500002221515061
  0.3948639483637875  0.4228895942347407  0.2499964929180769
  0.3950097282445664  0.5435399842541513  0.2499957193804237
  0.6524648051975578  0.6719764744170033  0.2499993404651785
  0.6523868509204800  0.5515372477020578  0.2499862599496645
  0.4560060394203669  0.3651246440029629  0.2500014739135512
  0.5913668862109130  0.4326311733077891  0.2500536010180463
  0.5916491636430292  0.7298526262717044  0.2500088844602098
  0.4562196117726213  0.6625509556110074  0.2499889769835257
 
  0.00000000E+00  0.00000000E+00  0.00000000E+00
  0.00000000E+00  0.00000000E+00  0.00000000E+00
  0.00000000E+00  0.00000000E+00  0.00000000E+00
  0.00000000E+00  0.00000000E+00  0.00000000E+00
  0.00000000E+00  0.00000000E+00  0.00000000E+00
  0.00000000E+00  0.00000000E+00  0.00000000E+00
  0.00000000E+00  0.00000000E+00  0.00000000E+00
  0.00000000E+00  0.00000000E+00  0.00000000E+00
  0.00000000E+00  0.00000000E+00  0.00000000E+00
  0.00000000E+00  0.00000000E+00  0.00000000E+00
  0.00000000E+00  0.00000000E+00  0.00000000E+00
  0.00000000E+00  0.00000000E+00  0.00000000E+00
  0.00000000E+00  0.00000000E+00  0.00000000E+00
  0.00000000E+00  0.00000000E+00  0.00000000E+00
  0.00000000E+00  0.00000000E+00  0.00000000E+00
  0.00000000E+00  0.00000000E+00  0.00000000E+00
  0.00000000E+00  0.00000000E+00  0.00000000E+00
  0.00000000E+00  0.00000000E+00  0.00000000E+00
  0.00000000E+00  0.00000000E+00  0.00000000E+00
  0.00000000E+00  0.00000000E+00  0.00000000E+00
  0.00000000E+00  0.00000000E+00  0.00000000E+00
  0.00000000E+00  0.00000000E+00  0.00000000E+00
  0.00000000E+00  0.00000000E+00  0.00000000E+00
  0.00000000E+00  0.00000000E+00  0.00000000E+00
  0.00000000E+00  0.00000000E+00  0.00000000E+00
  0.00000000E+00  0.00000000E+00  0.00000000E+00
  0.00000000E+00  0.00000000E+00  0.00000000E+00
  0.00000000E+00  0.00000000E+00  0.00000000E+00
  0.00000000E+00  0.00000000E+00  0.00000000E+00
  0.00000000E+00  0.00000000E+00  0.00000000E+00
  0.00000000E+00  0.00000000E+00  0.00000000E+00
  0.00000000E+00  0.00000000E+00  0.00000000E+00
  0.00000000E+00  0.00000000E+00  0.00000000E+00
  0.00000000E+00  0.00000000E+00  0.00000000E+00
  0.00000000E+00  0.00000000E+00  0.00000000E+00
  0.00000000E+00  0.00000000E+00  0.00000000E+00
  0.00000000E+00  0.00000000E+00  0.00000000E+00
  0.00000000E+00  0.00000000E+00  0.00000000E+00
  0.00000000E+00  0.00000000E+00  0.00000000E+00
  0.00000000E+00  0.00000000E+00  0.00000000E+00
  0.00000000E+00  0.00000000E+00  0.00000000E+00
  0.00000000E+00  0.00000000E+00  0.00000000E+00
  0.00000000E+00  0.00000000E+00  0.00000000E+00
  0.00000000E+00  0.00000000E+00  0.00000000E+00
  0.00000000E+00  0.00000000E+00  0.00000000E+00
  0.00000000E+00  0.00000000E+00  0.00000000E+00
  0.00000000E+00  0.00000000E+00  0.00000000E+00
  0.00000000E+00  0.00000000E+00  0.00000000E+00
  0.00000000E+00  0.00000000E+00  0.00000000E+00
  0.00000000E+00  0.00000000E+00  0.00000000E+00
  0.00000000E+00  0.00000000E+00  0.00000000E+00
  0.00000000E+00  0.00000000E+00  0.00000000E+00
  0.00000000E+00  0.00000000E+00  0.00000000E+00
  0.00000000E+00  0.00000000E+00  0.00000000E+00
  0.00000000E+00  0.00000000E+00  0.00000000E+00
  0.00000000E+00  0.00000000E+00  0.00000000E+00
  0.00000000E+00  0.00000000E+00  0.00000000E+00
  0.00000000E+00  0.00000000E+00  0.00000000E+00
  0.00000000E+00  0.00000000E+00  0.00000000E+00
  0.00000000E+00  0.00000000E+00  0.00000000E+00
  0.00000000E+00  0.00000000E+00  0.00000000E+00
  0.00000000E+00  0.00000000E+00  0.00000000E+00
  0.00000000E+00  0.00000000E+00  0.00000000E+00
  0.00000000E+00  0.00000000E+00  0.00000000E+00
  0.00000000E+00  0.00000000E+00  0.00000000E+00
  0.00000000E+00  0.00000000E+00  0.00000000E+00
  0.00000000E+00  0.00000000E+00  0.00000000E+00
  0.00000000E+00  0.00000000E+00  0.00000000E+00
  0.00000000E+00  0.00000000E+00  0.00000000E+00
  0.00000000E+00  0.00000000E+00  0.00000000E+00
  0.00000000E+00  0.00000000E+00  0.00000000E+00
  0.00000000E+00  0.00000000E+00  0.00000000E+00
  0.00000000E+00  0.00000000E+00  0.00000000E+00
  0.00000000E+00  0.00000000E+00  0.00000000E+00
  0.00000000E+00  0.00000000E+00  0.00000000E+00
  0.00000000E+00  0.00000000E+00  0.00000000E+00
  0.00000000E+00  0.00000000E+00  0.00000000E+00
  0.00000000E+00  0.00000000E+00  0.00000000E+00
  0.00000000E+00  0.00000000E+00  0.00000000E+00
  0.00000000E+00  0.00000000E+00  0.00000000E+00
  0.00000000E+00  0.00000000E+00  0.00000000E+00
  0.00000000E+00  0.00000000E+00  0.00000000E+00
  0.00000000E+00  0.00000000E+00  0.00000000E+00
  0.00000000E+00  0.00000000E+00  0.00000000E+00
  0.00000000E+00  0.00000000E+00  0.00000000E+00
  0.00000000E+00  0.00000000E+00  0.00000000E+00
  0.00000000E+00  0.00000000E+00  0.00000000E+00
  0.00000000E+00  0.00000000E+00  0.00000000E+00
  0.00000000E+00  0.00000000E+00  0.00000000E+00
  0.00000000E+00  0.00000000E+00  0.00000000E+00
  0.00000000E+00  0.00000000E+00  0.00000000E+00
  0.00000000E+00  0.00000000E+00  0.00000000E+00
  0.00000000E+00  0.00000000E+00  0.00000000E+00
  0.00000000E+00  0.00000000E+00  0.00000000E+00
  0.00000000E+00  0.00000000E+00  0.00000000E+00
  0.00000000E+00  0.00000000E+00  0.00000000E+00
