C4                                      
    1.000000000000000     
    17.2710380553999983    0.0000000000000000    0.0000000000000000
    -8.6355190276999991   14.9571577057000002    0.0000000000000000
     0.0000000000000000    0.0000000000000000   15.0000000000000000
   C    F    N 
    86     6     2
Direct
 -0.0003482376551084 -0.0001941869508238  0.2499858755267150
 -0.0002383128145476  0.1423829800866901  0.2499970680473012
  0.0000587794888071  0.2853631928746245  0.2499904970480649
 -0.0002073771349734  0.4284066715312398  0.2499939021709290
  0.0001449942217243  0.5714413180258190  0.2499928486831642
  0.0008562466970862  0.7144599130388080  0.2499834768873441
  0.0004125743326917  0.8577407482969049  0.2499801521811295
  0.1436378685476771  0.0018351518311260  0.2499983765667701
  0.1440318280590411  0.1447457808402692  0.2499982310292357
  0.1427592722674560  0.2865864734860401  0.2499978799153077
  0.1416036569546339  0.4300233793840721  0.2499899771088888
  0.1421980806755852  0.5725268846493096  0.2499931834523605
  0.1424447299572802  0.7154680936069894  0.2499991950737222
  0.1426541821088627  0.8585280165576742  0.2499933598638618
  0.2858425787063757  0.0016483767950534  0.2499988716696170
  0.2877451128330319  0.1452316731536498  0.2500159365355759
  0.2887570869636710  0.2903796409618903  0.2499873630022216
  0.2821261263989917  0.4309667377503824  0.2499996805010475
  0.2854982797425092  0.5752260519306378  0.2499805191262907
  0.2839143021021404  0.7170740618912189  0.2499939210789000
  0.2843853165899605  0.8592079205141352  0.2499934256516164
  0.4282550183650872  0.0006183658279823  0.2500013373284924
  0.4301592947425705  0.1426939330767898  0.2500432357776171
  0.4305961026143422  0.2809106858755575  0.2498645643607142
  0.4260912135507223  0.8586417773341706  0.2499975005144957
  0.5705562128421012  0.0002504846859034  0.2499948886833110
  0.5722307096707721  0.1420270949135578  0.2499988862970537
  0.5773213444049446  0.2870759212974133  0.2500001309627652
  0.5677268371619019  0.8580342868415490  0.2499820397234546
  0.7128540604824234 -0.0018852486957617  0.2499968639161333
  0.7147483077492177  0.1413283840729631  0.2499961185579943
  0.7160616298943819  0.2836164689253748  0.2499926334548450
  0.7128858927600303  0.4222475801084529  0.2500136428944521
  0.7189588862039712  0.5695797202370408  0.2499986918730317
  0.7198192780327316  0.7119025502833753  0.2500348568749172
  0.7103376039618942  0.8539011778410268  0.2500502343042150
  0.8557076840435477 -0.0018793624114866  0.2499754976963120
  0.8568833264721096  0.1414440593223674  0.2499980612646919
  0.8577919812452841  0.2844097980509402  0.2499927085311759
  0.8580578433274225  0.4272536146866840  0.2499904387248954
  0.8577077625375061  0.5697123021095021  0.2499901815204237
  0.8600731369360042  0.7136222439766216  0.2499851979877164
  0.8558857690921985  0.8550164951880654  0.2499979992872162
  0.0481247845729260  0.0956965885795691  0.2499927362819696
  0.0473656497110075  0.2376959061253404  0.2499945037549009
  0.0467759606253866  0.3809251494059789  0.2499942134634633
  0.0473695723553465  0.5238542458720763  0.2499951797182593
  0.0477349883144265  0.6669245589170633  0.2499938559708494
  0.0476123399164006  0.8099967567592306  0.2499846852026251
  0.0480274422959931  0.9530940384125840  0.2499872464410648
  0.1918901927494166  0.0971771903812114  0.2500128414438517
  0.1919222637296306  0.2405083844586214  0.2499954399795567
  0.1877353119562422  0.3819140452128651  0.2499973143111623
  0.1897856920068482  0.5255937031985423  0.2499838082862087
  0.1892885333108511  0.6680224100817932  0.2499981089031691
  0.1896983366439678  0.8109308964790458  0.2499993747514014
  0.1907343527150969  0.9538764664854095  0.2499927945252420
  0.3346379470013523  0.0969115377128575  0.2500222566456534
  0.3369895018267338  0.2411142070582387  0.2499675827649079
  0.3281739969154746  0.3836486979581942  0.2500206719238318
  0.3286590121501819  0.5259443846236962  0.2500063134308566
  0.3343883742075456  0.6730906051386425  0.2499717664628463
  0.3314345294173660  0.8117211718382210  0.2499929677569399
  0.3328421576781597  0.9539477968829483  0.2499932193773033
  0.4770648353492436  0.0949902126030749  0.2500179227913216
  0.4796168072267944  0.2370918968428114  0.2500036918096088
  0.4700319890829119  0.8082371081107114  0.2499803014767241
  0.4753985395234386  0.9533218543146948  0.2499976925267812
  0.6193441160954481  0.0946760080629432  0.2499966917087626
  0.6214302728337679  0.2367218094705951  0.2499912048608949
  0.6165710964285438  0.8140014529357302  0.2501751727447546
  0.6173368274775877  0.9524087922954952  0.2499641468437487
  0.7617041161840714  0.0934989270832797  0.2500019526677754
  0.7631225261818183  0.2361039701219441  0.2499943079010721
  0.7634030208754515  0.3782259627753470  0.2499993593729957
  0.7618804575102339  0.5200980491073199  0.2500020649295994
  0.7657217550529972  0.6645044934888643  0.2500020342887066
  0.7590861960472851  0.8050885509755920  0.2500438968145128
  0.7597829005405309  0.9498401161280432  0.2499879979261451
  0.9040867819658021  0.0935232124089997  0.2499852301358071
  0.9049670849905010  0.2368610353357376  0.2499916956511928
  0.9050065264927011  0.3798872670632537  0.2499906319854183
  0.9053084138042016  0.5227568778519678  0.2499917041246596
  0.9060291449456223  0.6653227208025771  0.2499814751874812
  0.9050590010242709  0.8089556008552196  0.2499831322756594
  0.9037200789053661  0.9507105430638840  0.2499817785640427
  0.4833298338797688  0.3686424147989932  0.2494966458985704
  0.4161350971767466  0.4400295754019644  0.2501052375935229
  0.4179907995242159  0.5713622816795652  0.2500332496955681
  0.6319412087581053  0.6558079056295684  0.2500376380210719
  0.6295607289886355  0.5244711445971290  0.2499989145262922
  0.5635104288747679  0.7262496815487228  0.2506355474970839
  0.4234845626179335  0.7184676910480056  0.2499346401239107
  0.6237724979908693  0.3768611740951628  0.2500377070042639
 
  0.00000000E+00  0.00000000E+00  0.00000000E+00
  0.00000000E+00  0.00000000E+00  0.00000000E+00
  0.00000000E+00  0.00000000E+00  0.00000000E+00
  0.00000000E+00  0.00000000E+00  0.00000000E+00
  0.00000000E+00  0.00000000E+00  0.00000000E+00
  0.00000000E+00  0.00000000E+00  0.00000000E+00
  0.00000000E+00  0.00000000E+00  0.00000000E+00
  0.00000000E+00  0.00000000E+00  0.00000000E+00
  0.00000000E+00  0.00000000E+00  0.00000000E+00
  0.00000000E+00  0.00000000E+00  0.00000000E+00
  0.00000000E+00  0.00000000E+00  0.00000000E+00
  0.00000000E+00  0.00000000E+00  0.00000000E+00
  0.00000000E+00  0.00000000E+00  0.00000000E+00
  0.00000000E+00  0.00000000E+00  0.00000000E+00
  0.00000000E+00  0.00000000E+00  0.00000000E+00
  0.00000000E+00  0.00000000E+00  0.00000000E+00
  0.00000000E+00  0.00000000E+00  0.00000000E+00
  0.00000000E+00  0.00000000E+00  0.00000000E+00
  0.00000000E+00  0.00000000E+00  0.00000000E+00
  0.00000000E+00  0.00000000E+00  0.00000000E+00
  0.00000000E+00  0.00000000E+00  0.00000000E+00
  0.00000000E+00  0.00000000E+00  0.00000000E+00
  0.00000000E+00  0.00000000E+00  0.00000000E+00
  0.00000000E+00  0.00000000E+00  0.00000000E+00
  0.00000000E+00  0.00000000E+00  0.00000000E+00
  0.00000000E+00  0.00000000E+00  0.00000000E+00
  0.00000000E+00  0.00000000E+00  0.00000000E+00
  0.00000000E+00  0.00000000E+00  0.00000000E+00
  0.00000000E+00  0.00000000E+00  0.00000000E+00
  0.00000000E+00  0.00000000E+00  0.00000000E+00
  0.00000000E+00  0.00000000E+00  0.00000000E+00
  0.00000000E+00  0.00000000E+00  0.00000000E+00
  0.00000000E+00  0.00000000E+00  0.00000000E+00
  0.00000000E+00  0.00000000E+00  0.00000000E+00
  0.00000000E+00  0.00000000E+00  0.00000000E+00
  0.00000000E+00  0.00000000E+00  0.00000000E+00
  0.00000000E+00  0.00000000E+00  0.00000000E+00
  0.00000000E+00  0.00000000E+00  0.00000000E+00
  0.00000000E+00  0.00000000E+00  0.00000000E+00
  0.00000000E+00  0.00000000E+00  0.00000000E+00
  0.00000000E+00  0.00000000E+00  0.00000000E+00
  0.00000000E+00  0.00000000E+00  0.00000000E+00
  0.00000000E+00  0.00000000E+00  0.00000000E+00
  0.00000000E+00  0.00000000E+00  0.00000000E+00
  0.00000000E+00  0.00000000E+00  0.00000000E+00
  0.00000000E+00  0.00000000E+00  0.00000000E+00
  0.00000000E+00  0.00000000E+00  0.00000000E+00
  0.00000000E+00  0.00000000E+00  0.00000000E+00
  0.00000000E+00  0.00000000E+00  0.00000000E+00
  0.00000000E+00  0.00000000E+00  0.00000000E+00
  0.00000000E+00  0.00000000E+00  0.00000000E+00
  0.00000000E+00  0.00000000E+00  0.00000000E+00
  0.00000000E+00  0.00000000E+00  0.00000000E+00
  0.00000000E+00  0.00000000E+00  0.00000000E+00
  0.00000000E+00  0.00000000E+00  0.00000000E+00
  0.00000000E+00  0.00000000E+00  0.00000000E+00
  0.00000000E+00  0.00000000E+00  0.00000000E+00
  0.00000000E+00  0.00000000E+00  0.00000000E+00
  0.00000000E+00  0.00000000E+00  0.00000000E+00
  0.00000000E+00  0.00000000E+00  0.00000000E+00
  0.00000000E+00  0.00000000E+00  0.00000000E+00
  0.00000000E+00  0.00000000E+00  0.00000000E+00
  0.00000000E+00  0.00000000E+00  0.00000000E+00
  0.00000000E+00  0.00000000E+00  0.00000000E+00
  0.00000000E+00  0.00000000E+00  0.00000000E+00
  0.00000000E+00  0.00000000E+00  0.00000000E+00
  0.00000000E+00  0.00000000E+00  0.00000000E+00
  0.00000000E+00  0.00000000E+00  0.00000000E+00
  0.00000000E+00  0.00000000E+00  0.00000000E+00
  0.00000000E+00  0.00000000E+00  0.00000000E+00
  0.00000000E+00  0.00000000E+00  0.00000000E+00
  0.00000000E+00  0.00000000E+00  0.00000000E+00
  0.00000000E+00  0.00000000E+00  0.00000000E+00
  0.00000000E+00  0.00000000E+00  0.00000000E+00
  0.00000000E+00  0.00000000E+00  0.00000000E+00
  0.00000000E+00  0.00000000E+00  0.00000000E+00
  0.00000000E+00  0.00000000E+00  0.00000000E+00
  0.00000000E+00  0.00000000E+00  0.00000000E+00
  0.00000000E+00  0.00000000E+00  0.00000000E+00
  0.00000000E+00  0.00000000E+00  0.00000000E+00
  0.00000000E+00  0.00000000E+00  0.00000000E+00
  0.00000000E+00  0.00000000E+00  0.00000000E+00
  0.00000000E+00  0.00000000E+00  0.00000000E+00
  0.00000000E+00  0.00000000E+00  0.00000000E+00
  0.00000000E+00  0.00000000E+00  0.00000000E+00
  0.00000000E+00  0.00000000E+00  0.00000000E+00
  0.00000000E+00  0.00000000E+00  0.00000000E+00
  0.00000000E+00  0.00000000E+00  0.00000000E+00
  0.00000000E+00  0.00000000E+00  0.00000000E+00
  0.00000000E+00  0.00000000E+00  0.00000000E+00
  0.00000000E+00  0.00000000E+00  0.00000000E+00
  0.00000000E+00  0.00000000E+00  0.00000000E+00
  0.00000000E+00  0.00000000E+00  0.00000000E+00
  0.00000000E+00  0.00000000E+00  0.00000000E+00
