C    F    N    H    O                   
    1.000000000000000     
    17.2710380553999983    0.0000000000000000    0.0000000000000000
    -8.6355190276999991   14.9571577057000002    0.0000000000000000
     0.0000000000000000    0.0000000000000000   15.0000000000000000
   C    F    N    H    O 
    86     6     2     2     1
Selective dynamics
Direct
  0.0012211972631521  0.0005988754627472  0.5027802723448890   T   T   T
  0.0004577902922976  0.1429814141363382  0.5063402293090595   T   T   T
  0.0004032699082828  0.2858939356337654  0.5060778390880927   T   T   T
  0.0008049649901287  0.4289367689916274  0.5051719887317723   T   T   T
  0.0012515824961402  0.5720359734486283  0.5006287935106213   T   T   T
  0.0023465613773318  0.7154325256856486  0.4979619805167536   T   T   T
  0.0028512909367964  0.8587912771193619  0.4989338530077442   T   T   T
  0.1444990792827102  0.0012570301125584  0.4930834773709111   T   T   T
  0.1436384271085721  0.1436875372985850  0.4970137897868490   T   T   T
  0.1427835827399746  0.2861109828664279  0.4946904164654281   T   T   T
  0.1433553995077803  0.4293146737965717  0.4925955456836941   T   T   T
  0.1440035584625639  0.5719022580638756  0.4944544190511509   T   T   T
  0.1441862853772908  0.7148990039968384  0.4931309884164627   T   T   T
  0.1445814011014793  0.8581508084779528  0.4924427756900815   T   T   T
  0.2869175873454806  0.0006309333549338  0.4913262120697686   T   T   T
  0.2867376745015406  0.1433320511025080  0.4892736196643340   T   T   T
  0.2857128017411353  0.2867963323245761  0.4838840346060673   T   T   T
  0.2826562735024856  0.4274773798808421  0.4627771391823751   T   T   T
  0.2869983825987742  0.5727812075342993  0.4731168965313450   T   T   T
  0.2864048283395509  0.7153505840251222  0.4871362075012301   T   T   T
  0.2865806362911217  0.8580699966795116  0.4912128473406853   T   T   T
  0.4297472987918320  0.0002474144185026  0.4950313253179798   T   T   T
  0.4294921885683621  0.1429642881310762  0.4943144322190527   T   T   T
  0.4253128043985996  0.2797527500871410  0.5114876111314324   T   T   T
  0.4286093797801116  0.8569135108158905  0.4928876581528182   T   T   T
  0.5718124271266215  0.9989395092074049  0.5034874495596274   T   T   T
  0.5722295387108600  0.1423852996663801  0.5057001046557642   T   T   T
  0.5730106518077485  0.2857498187880638  0.4999799131462077   T   T   T
  0.5700821862485971  0.8539821175808439  0.4994055888029574   T   T   T
  0.7139559167939913  0.9977674934020003  0.5098625747250699   T   T   T
  0.7148347080521692  0.1420299838393977  0.5111755852483807   T   T   T
  0.7153232361234197  0.2858056106321369  0.5109956710116181   T   T   T
  0.7157249965642335  0.4295291900768952  0.5047284088942574   T   T   T
  0.7228720334502142  0.5779873950621782  0.5268493425304699   T   T   T
  0.7144570579526429  0.8542449165866729  0.5108348259527198   T   T   T
  0.8575901007086447  0.9993641571920557  0.5109110266946811   T   T   T
  0.8572716187004398  0.1422109390982820  0.5116255792941677   T   T   T
  0.8577536322983761  0.2855890530243535  0.5119228364096949   T   T   T
  0.8583346056408462  0.4291396681622107  0.5106248233603379   T   T   T
  0.8591586968924455  0.5730877858284487  0.5042482137973445   T   T   T
  0.8614964218442820  0.7168299173157472  0.5070263805621393   T   T   T
  0.8595487114427095  0.8574937074549118  0.5088932241758609   T   T   T
  0.0485665622687617  0.0958791279689907  0.5025513820949493   T   T   T
  0.0477198531395354  0.2381804127738194  0.5032866213954271   T   T   T
  0.0481725255994336  0.3813180905480096  0.5023274548800045   T   T   T
  0.0488151254973038  0.5242254183901278  0.5008040661472620   T   T   T
  0.0491431988058567  0.6673490310100939  0.4967342460589208   T   T   T
  0.0496913657578194  0.8105947163923898  0.4958218391183800   T   T   T
  0.0494351655638667  0.9535965817111030  0.4979662738463004   T   T   T
  0.1914990780272359  0.0961026022078945  0.4915257422603538   T   T   T
  0.1904662705023621  0.2388234122962757  0.4934359980853258   T   T   T
  0.1896441611692347  0.3809651472994453  0.4857218945983813   T   T   T
  0.1918355385491158  0.5247012935468173  0.4884158971508022   T   T   T
  0.1913512454670062  0.6672282485472989  0.4910558250538026   T   T   T
  0.1917478758635928  0.8103062437040550  0.4916691064238174   T   T   T
  0.1919768936841724  0.9532887165741688  0.4914425489191298   T   T   T
  0.3344252140983551  0.0958228881095375  0.4916516990867056   T   T   T
  0.3340121133176033  0.2385893615635888  0.4929574961929603   T   T   T
  0.3258314351764313  0.3763146950237493  0.4577168685334838   T   T   T
  0.3262681746643321  0.5216527836026884  0.4500023666895132   T   T   T
  0.3369136624533956  0.6708037452972614  0.4799735868487032   T   T   T
  0.3338355599944338  0.8101890392408979  0.4902431627634437   T   T   T
  0.3344108205104911  0.9530201775081287  0.4920043379066222   T   T   T
  0.4773973537591080  0.0953556311596758  0.4974183390568839   T   T   T
  0.4767991684518007  0.2380103467193478  0.5002112698214324   T   T   T
  0.4725934673722637  0.8055112276887478  0.4915241354857583   T   T   T
  0.4769370591427803  0.9522017497803688  0.4973122198987069   T   T   T
  0.6195032713775024  0.0943055787655123  0.5077558627739954   T   T   T
  0.6202161979399037  0.2379611497064533  0.5080896257158696   T   T   T
  0.6245275947283265  0.3785097492008649  0.4855323932715438   T   T   T
  0.6209948006216699  0.8107742364867960  0.5021658007422003   T   T   T
  0.6184963332724452  0.9499157657621515  0.5049832519100309   T   T   T
  0.7619546563094535  0.0938657198233119  0.5115172074337531   T   T   T
  0.7626243577248245  0.2376087413003157  0.5120687392430837   T   T   T
  0.7629774449547929  0.3813199285456331  0.5118040752716128   T   T   T
  0.7634150614549067  0.5266034673389484  0.5101407281436953   T   T   T
  0.7673354872900402  0.6727540583816226  0.5197289070307957   T   T   T
  0.7637996151317162  0.8055792685026399  0.5150496647183892   T   T   T
  0.7619720031421077  0.9502928145730568  0.5114231929632120   T   T   T
  0.9049954467465288  0.0946125133836367  0.5102374548903945   T   T   T
  0.9050753216598034  0.2377700316072092  0.5106973899589086   T   T   T
  0.9055048701177254  0.3812391563395599  0.5102322670935739   T   T   T
  0.9059860138068304  0.5246237595675961  0.5044443978505464   T   T   T
  0.9074216684671867  0.6680408517137204  0.5026747592204137   T   T   T
  0.9081409116326240  0.8113458580037223  0.5046980491642680   T   T   T
  0.9060065349101032  0.9524988578110808  0.5075821537975024   T   T   T
  0.4646729878176488  0.3618799055585668  0.5496794975991033   T   T   T
  0.4095655652660105  0.4152801188984186  0.4243720009992746   T   T   T
  0.4070261857592189  0.5623831298134910  0.4116495355342400   T   T   T
  0.6370516324417921  0.5373922907135531  0.5543401775287913   T   T   T
  0.5852276309489237  0.4191667030540472  0.4433511118831061   T   T   T
  0.5770244573186645  0.7214781036992896  0.4933835320145871   T   T   T
  0.4265497577028824  0.7156051700938878  0.4830649427376873   T   T   T
  0.7204953905777011  0.7164073648696754  0.5243239595543672   T   T   T
  0.5240037384675864  0.6027832951937014  0.5590955964926935   T   T   T
  0.4983981252767088  0.5053771712544242  0.5459089939542439   T   T   T
  0.4754238292362961  0.5421767650092971  0.5697759538333358   T   T   F
 
  0.00000000E+00  0.00000000E+00  0.00000000E+00
  0.00000000E+00  0.00000000E+00  0.00000000E+00
  0.00000000E+00  0.00000000E+00  0.00000000E+00
  0.00000000E+00  0.00000000E+00  0.00000000E+00
  0.00000000E+00  0.00000000E+00  0.00000000E+00
  0.00000000E+00  0.00000000E+00  0.00000000E+00
  0.00000000E+00  0.00000000E+00  0.00000000E+00
  0.00000000E+00  0.00000000E+00  0.00000000E+00
  0.00000000E+00  0.00000000E+00  0.00000000E+00
  0.00000000E+00  0.00000000E+00  0.00000000E+00
  0.00000000E+00  0.00000000E+00  0.00000000E+00
  0.00000000E+00  0.00000000E+00  0.00000000E+00
  0.00000000E+00  0.00000000E+00  0.00000000E+00
  0.00000000E+00  0.00000000E+00  0.00000000E+00
  0.00000000E+00  0.00000000E+00  0.00000000E+00
  0.00000000E+00  0.00000000E+00  0.00000000E+00
  0.00000000E+00  0.00000000E+00  0.00000000E+00
  0.00000000E+00  0.00000000E+00  0.00000000E+00
  0.00000000E+00  0.00000000E+00  0.00000000E+00
  0.00000000E+00  0.00000000E+00  0.00000000E+00
  0.00000000E+00  0.00000000E+00  0.00000000E+00
  0.00000000E+00  0.00000000E+00  0.00000000E+00
  0.00000000E+00  0.00000000E+00  0.00000000E+00
  0.00000000E+00  0.00000000E+00  0.00000000E+00
  0.00000000E+00  0.00000000E+00  0.00000000E+00
  0.00000000E+00  0.00000000E+00  0.00000000E+00
  0.00000000E+00  0.00000000E+00  0.00000000E+00
  0.00000000E+00  0.00000000E+00  0.00000000E+00
  0.00000000E+00  0.00000000E+00  0.00000000E+00
  0.00000000E+00  0.00000000E+00  0.00000000E+00
  0.00000000E+00  0.00000000E+00  0.00000000E+00
  0.00000000E+00  0.00000000E+00  0.00000000E+00
  0.00000000E+00  0.00000000E+00  0.00000000E+00
  0.00000000E+00  0.00000000E+00  0.00000000E+00
  0.00000000E+00  0.00000000E+00  0.00000000E+00
  0.00000000E+00  0.00000000E+00  0.00000000E+00
  0.00000000E+00  0.00000000E+00  0.00000000E+00
  0.00000000E+00  0.00000000E+00  0.00000000E+00
  0.00000000E+00  0.00000000E+00  0.00000000E+00
  0.00000000E+00  0.00000000E+00  0.00000000E+00
  0.00000000E+00  0.00000000E+00  0.00000000E+00
  0.00000000E+00  0.00000000E+00  0.00000000E+00
  0.00000000E+00  0.00000000E+00  0.00000000E+00
  0.00000000E+00  0.00000000E+00  0.00000000E+00
  0.00000000E+00  0.00000000E+00  0.00000000E+00
  0.00000000E+00  0.00000000E+00  0.00000000E+00
  0.00000000E+00  0.00000000E+00  0.00000000E+00
  0.00000000E+00  0.00000000E+00  0.00000000E+00
  0.00000000E+00  0.00000000E+00  0.00000000E+00
  0.00000000E+00  0.00000000E+00  0.00000000E+00
  0.00000000E+00  0.00000000E+00  0.00000000E+00
  0.00000000E+00  0.00000000E+00  0.00000000E+00
  0.00000000E+00  0.00000000E+00  0.00000000E+00
  0.00000000E+00  0.00000000E+00  0.00000000E+00
  0.00000000E+00  0.00000000E+00  0.00000000E+00
  0.00000000E+00  0.00000000E+00  0.00000000E+00
  0.00000000E+00  0.00000000E+00  0.00000000E+00
  0.00000000E+00  0.00000000E+00  0.00000000E+00
  0.00000000E+00  0.00000000E+00  0.00000000E+00
  0.00000000E+00  0.00000000E+00  0.00000000E+00
  0.00000000E+00  0.00000000E+00  0.00000000E+00
  0.00000000E+00  0.00000000E+00  0.00000000E+00
  0.00000000E+00  0.00000000E+00  0.00000000E+00
  0.00000000E+00  0.00000000E+00  0.00000000E+00
  0.00000000E+00  0.00000000E+00  0.00000000E+00
  0.00000000E+00  0.00000000E+00  0.00000000E+00
  0.00000000E+00  0.00000000E+00  0.00000000E+00
  0.00000000E+00  0.00000000E+00  0.00000000E+00
  0.00000000E+00  0.00000000E+00  0.00000000E+00
  0.00000000E+00  0.00000000E+00  0.00000000E+00
  0.00000000E+00  0.00000000E+00  0.00000000E+00
  0.00000000E+00  0.00000000E+00  0.00000000E+00
  0.00000000E+00  0.00000000E+00  0.00000000E+00
  0.00000000E+00  0.00000000E+00  0.00000000E+00
  0.00000000E+00  0.00000000E+00  0.00000000E+00
  0.00000000E+00  0.00000000E+00  0.00000000E+00
  0.00000000E+00  0.00000000E+00  0.00000000E+00
  0.00000000E+00  0.00000000E+00  0.00000000E+00
  0.00000000E+00  0.00000000E+00  0.00000000E+00
  0.00000000E+00  0.00000000E+00  0.00000000E+00
  0.00000000E+00  0.00000000E+00  0.00000000E+00
  0.00000000E+00  0.00000000E+00  0.00000000E+00
  0.00000000E+00  0.00000000E+00  0.00000000E+00
  0.00000000E+00  0.00000000E+00  0.00000000E+00
  0.00000000E+00  0.00000000E+00  0.00000000E+00
  0.00000000E+00  0.00000000E+00  0.00000000E+00
  0.00000000E+00  0.00000000E+00  0.00000000E+00
  0.00000000E+00  0.00000000E+00  0.00000000E+00
  0.00000000E+00  0.00000000E+00  0.00000000E+00
  0.00000000E+00  0.00000000E+00  0.00000000E+00
  0.00000000E+00  0.00000000E+00  0.00000000E+00
  0.00000000E+00  0.00000000E+00  0.00000000E+00
  0.00000000E+00  0.00000000E+00  0.00000000E+00
  0.00000000E+00  0.00000000E+00  0.00000000E+00
  0.00000000E+00  0.00000000E+00  0.00000000E+00
  0.00000000E+00  0.00000000E+00  0.00000000E+00
  0.00000000E+00  0.00000000E+00  0.00000000E+00
