C    F    N    H    O                   
    1.000000000000000     
    17.2710380553999983    0.0000000000000000    0.0000000000000000
    -8.6355190276999991   14.9571577057000002    0.0000000000000000
     0.0000000000000000    0.0000000000000000   15.0000000000000000
   C    F    N    H    O 
    86     6     2     2     1
Selective dynamics
Direct
  0.0011733965643349  0.0005776733303477  0.5027158197327684   T   T   T
  0.0003922705136010  0.1429478007944793  0.5063574800533260   T   T   T
  0.0003427178104241  0.2858614060068260  0.5061470217581628   T   T   T
  0.0007328550550190  0.4288937770958658  0.5052229089359475   T   T   T
  0.0011788133097959  0.5719923894377255  0.5005488271653411   T   T   T
  0.0022830011436879  0.7153945074551580  0.4977538932595757   T   T   T
  0.0028111685574662  0.8587712138054971  0.4987403659656061   T   T   T
  0.1444623075218807  0.0012431697316510  0.4930577431669136   T   T   T
  0.1435870707938487  0.1436605161541118  0.4972040738001122   T   T   T
  0.1427530860376673  0.2860776462164204  0.4952495551433863   T   T   T
  0.1433278131936013  0.4292935815906586  0.4933233177267203   T   T   T
  0.1439464614344701  0.5718653804219480  0.4949749575965284   T   T   T
  0.1441182116993546  0.7148615787300050  0.4932945451096127   T   T   T
  0.1445304745669935  0.8581179872578587  0.4924032555743073   T   T   T
  0.2868740960096875  0.0006105174117476  0.4914141293744255   T   T   T
  0.2867173798032474  0.1433363032736520  0.4895953738699863   T   T   T
  0.2857147585803012  0.2867921357779170  0.4846620480441451   T   T   T
  0.2827228009087649  0.4275365998837616  0.4640344513484125   T   T   T
  0.2870092043540484  0.5727831408777481  0.4742283480973782   T   T   T
  0.2863409867790108  0.7153255121953243  0.4877900952707780   T   T   T
  0.2865282677487206  0.8580461916269702  0.4914773529494570   T   T   T
  0.4296908459560050  1.0002095056507851  0.4952384525952960   T   T   T
  0.4294435564983394  0.1429289917143878  0.4945489220683937   T   T   T
  0.4253122793271519  0.2797066153280876  0.5121086704238019   T   T   T
  0.4285493929011091  0.8568838758447255  0.4933654161303475   T   T   T
  0.5717605831022065  0.9989213004518079  0.5036577893035369   T   T   T
  0.5721783966514864  0.1423652837119535  0.5057430575035341   T   T   T
  0.5729469414165216  0.2857118777182475  0.5000867240624153   T   T   T
  0.5700353490685425  0.8539785091053649  0.4997780151895482   T   T   T
  0.7139132243656116  0.9977614437694182  0.5098404443543246   T   T   T
  0.7147860672278643  0.1420205920637646  0.5110045447793076   T   T   T
  0.7152711429899758  0.2857859201634469  0.5107302198464387   T   T   T
  0.7156181969228937  0.4295001387966502  0.5043975280930598   T   T   T
  0.7228707435752380  0.5779768356499965  0.5266105274820027   T   T   T
  0.7144254109462539  0.8542418827682179  0.5108621636537202   T   T   T
  0.8575378670223057  0.9993433690538884  0.5108530050962313   T   T   T
  0.8572110517599865  0.1421898627456967  0.5113896051492617   T   T   T
  0.8576922275243202  0.2855596654518300  0.5116367342066587   T   T   T
  0.8582413089718117  0.4290943343336815  0.5102557260609597   T   T   T
  0.8590993964527842  0.5730483547423123  0.5038666436097672   T   T   T
  0.8614487305707715  0.7168133242947962  0.5067426571828645   T   T   T
  0.8595061484199971  0.8574766870528919  0.5087602404661417   T   T   T
  0.0485128857857338  0.0958458608534303  0.5025997230426511   T   T   T
  0.0476704019289749  0.2381430126849452  0.5034822018580812   T   T   T
  0.0481197021387279  0.3812850522419861  0.5026016718965929   T   T   T
  0.0487437441426916  0.5241896957404353  0.5009904468744903   T   T   T
  0.0490720282539750  0.6673094418525002  0.4966802493411657   T   T   T
  0.0496465418590731  0.8105743524697652  0.4956597246226714   T   T   T
  0.0494011935838970  0.9535921405199084  0.4978640554204009   T   T   T
  0.1914657253760816  0.0960928041827554  0.4916677032260000   T   T   T
  0.1904407633888569  0.2387934638922377  0.4939524180927480   T   T   T
  0.1896439024235442  0.3809490926989920  0.4866359484402210   T   T   T
  0.1918172325429663  0.5246825253051621  0.4892720616928096   T   T   T
  0.1912829686649075  0.6671936413140880  0.4915006348409431   T   T   T
  0.1916897950276485  0.8102740582219239  0.4917861497417827   T   T   T
  0.1919318741045405  0.9532734667899564  0.4914387416289949   T   T   T
  0.3343737117397320  0.0958008756133141  0.4918395959980729   T   T   T
  0.3340091505167638  0.2385930423739358  0.4935376147518453   T   T   T
  0.3258966841516424  0.3764031684463714  0.4589140069523825   T   T   T
  0.3263651321313143  0.5216944574061533  0.4512541644379348   T   T   T
  0.3368517990450365  0.6707694954733042  0.4809463182801101   T   T   T
  0.3337762882091787  0.8101666179309578  0.4907296467476990   T   T   T
  0.3343458036525885  0.9529922126352898  0.4921771719411336   T   T   T
  0.4773342364850509  0.0953145535041123  0.4975778624783734   T   T   T
  0.4767445075441122  0.2379579322919481  0.5005403678394764   T   T   T
  0.4725279509985180  0.8054824766584872  0.4921795629118631   T   T   T
  0.4768733751185948  0.9521720396955813  0.4975821850899849   T   T   T
  0.6194487390089954  0.0942891555069475  0.5077518018057163   T   T   T
  0.6201726425786732  0.2379431743346834  0.5080357192147834   T   T   T
  0.6243576000959141  0.3784548102228937  0.4854915650058985   T   T   T
  0.6209621476263772  0.8107760274855893  0.5023137534777918   T   T   T
  0.6184469690456644  0.9499053458856517  0.5051702017855815   T   T   T
  0.7619043332900042  0.0938572487157670  0.5113259151780061   T   T   T
  0.7625706665608569  0.2375889754258091  0.5118025219470661   T   T   T
  0.7628913403203219  0.3812938351211663  0.5114174475645354   T   T   T
  0.7633679498962964  0.5265832610076329  0.5097631258146750   T   T   T
  0.7673084307074859  0.6727511885461472  0.5195309055167741   T   T   T
  0.7637644487540574  0.8055665612995669  0.5149815986978344   T   T   T
  0.7619316304196623  0.9502823826933147  0.5114126374988127   T   T   T
  0.9049339051340592  0.0945810198420070  0.5101127342723192   T   T   T
  0.9050210814802150  0.2377461241907201  0.5104898096591273   T   T   T
  0.9054287204467512  0.3812057921265238  0.5099863411269175   T   T   T
  0.9059170351690738  0.5245796398542738  0.5041232370828544   T   T   T
  0.9073626970127118  0.6680188975197077  0.5023428058067028   T   T   T
  0.9081088462262874  0.8113418190450690  0.5044745996212442   T   T   T
  0.9059665342825561  0.9524772940219800  0.5075165822199830   T   T   T
  0.4647421350982422  0.3617241702630817  0.5505378209097728   T   T   T
  0.4097582260721584  0.4155222428240116  0.4259563890217687   T   T   T
  0.4070094217656849  0.5623006368501208  0.4126998096442466   T   T   T
  0.6371211740106046  0.5373311966677223  0.5542819025438026   T   T   T
  0.5847839444051892  0.4189754923103037  0.4435556979742467   T   T   T
  0.5770081427328957  0.7215136328211756  0.4933504981590256   T   T   T
  0.4264808000798559  0.7155583981626722  0.4840906554215505   T   T   T
  0.7204579063833019  0.7163849367008939  0.5242628982585843   T   T   T
  0.5262208234408647  0.6034751095716478  0.5603437468032229   T   T   T
  0.4990494183934650  0.5058782423001190  0.5454143285288137   T   T   T
  0.4767654546904804  0.5430687983976452  0.5697759538333358   T   T   F
 
  0.00000000E+00  0.00000000E+00  0.00000000E+00
  0.00000000E+00  0.00000000E+00  0.00000000E+00
  0.00000000E+00  0.00000000E+00  0.00000000E+00
  0.00000000E+00  0.00000000E+00  0.00000000E+00
  0.00000000E+00  0.00000000E+00  0.00000000E+00
  0.00000000E+00  0.00000000E+00  0.00000000E+00
  0.00000000E+00  0.00000000E+00  0.00000000E+00
  0.00000000E+00  0.00000000E+00  0.00000000E+00
  0.00000000E+00  0.00000000E+00  0.00000000E+00
  0.00000000E+00  0.00000000E+00  0.00000000E+00
  0.00000000E+00  0.00000000E+00  0.00000000E+00
  0.00000000E+00  0.00000000E+00  0.00000000E+00
  0.00000000E+00  0.00000000E+00  0.00000000E+00
  0.00000000E+00  0.00000000E+00  0.00000000E+00
  0.00000000E+00  0.00000000E+00  0.00000000E+00
  0.00000000E+00  0.00000000E+00  0.00000000E+00
  0.00000000E+00  0.00000000E+00  0.00000000E+00
  0.00000000E+00  0.00000000E+00  0.00000000E+00
  0.00000000E+00  0.00000000E+00  0.00000000E+00
  0.00000000E+00  0.00000000E+00  0.00000000E+00
  0.00000000E+00  0.00000000E+00  0.00000000E+00
  0.00000000E+00  0.00000000E+00  0.00000000E+00
  0.00000000E+00  0.00000000E+00  0.00000000E+00
  0.00000000E+00  0.00000000E+00  0.00000000E+00
  0.00000000E+00  0.00000000E+00  0.00000000E+00
  0.00000000E+00  0.00000000E+00  0.00000000E+00
  0.00000000E+00  0.00000000E+00  0.00000000E+00
  0.00000000E+00  0.00000000E+00  0.00000000E+00
  0.00000000E+00  0.00000000E+00  0.00000000E+00
  0.00000000E+00  0.00000000E+00  0.00000000E+00
  0.00000000E+00  0.00000000E+00  0.00000000E+00
  0.00000000E+00  0.00000000E+00  0.00000000E+00
  0.00000000E+00  0.00000000E+00  0.00000000E+00
  0.00000000E+00  0.00000000E+00  0.00000000E+00
  0.00000000E+00  0.00000000E+00  0.00000000E+00
  0.00000000E+00  0.00000000E+00  0.00000000E+00
  0.00000000E+00  0.00000000E+00  0.00000000E+00
  0.00000000E+00  0.00000000E+00  0.00000000E+00
  0.00000000E+00  0.00000000E+00  0.00000000E+00
  0.00000000E+00  0.00000000E+00  0.00000000E+00
  0.00000000E+00  0.00000000E+00  0.00000000E+00
  0.00000000E+00  0.00000000E+00  0.00000000E+00
  0.00000000E+00  0.00000000E+00  0.00000000E+00
  0.00000000E+00  0.00000000E+00  0.00000000E+00
  0.00000000E+00  0.00000000E+00  0.00000000E+00
  0.00000000E+00  0.00000000E+00  0.00000000E+00
  0.00000000E+00  0.00000000E+00  0.00000000E+00
  0.00000000E+00  0.00000000E+00  0.00000000E+00
  0.00000000E+00  0.00000000E+00  0.00000000E+00
  0.00000000E+00  0.00000000E+00  0.00000000E+00
  0.00000000E+00  0.00000000E+00  0.00000000E+00
  0.00000000E+00  0.00000000E+00  0.00000000E+00
  0.00000000E+00  0.00000000E+00  0.00000000E+00
  0.00000000E+00  0.00000000E+00  0.00000000E+00
  0.00000000E+00  0.00000000E+00  0.00000000E+00
  0.00000000E+00  0.00000000E+00  0.00000000E+00
  0.00000000E+00  0.00000000E+00  0.00000000E+00
  0.00000000E+00  0.00000000E+00  0.00000000E+00
  0.00000000E+00  0.00000000E+00  0.00000000E+00
  0.00000000E+00  0.00000000E+00  0.00000000E+00
  0.00000000E+00  0.00000000E+00  0.00000000E+00
  0.00000000E+00  0.00000000E+00  0.00000000E+00
  0.00000000E+00  0.00000000E+00  0.00000000E+00
  0.00000000E+00  0.00000000E+00  0.00000000E+00
  0.00000000E+00  0.00000000E+00  0.00000000E+00
  0.00000000E+00  0.00000000E+00  0.00000000E+00
  0.00000000E+00  0.00000000E+00  0.00000000E+00
  0.00000000E+00  0.00000000E+00  0.00000000E+00
  0.00000000E+00  0.00000000E+00  0.00000000E+00
  0.00000000E+00  0.00000000E+00  0.00000000E+00
  0.00000000E+00  0.00000000E+00  0.00000000E+00
  0.00000000E+00  0.00000000E+00  0.00000000E+00
  0.00000000E+00  0.00000000E+00  0.00000000E+00
  0.00000000E+00  0.00000000E+00  0.00000000E+00
  0.00000000E+00  0.00000000E+00  0.00000000E+00
  0.00000000E+00  0.00000000E+00  0.00000000E+00
  0.00000000E+00  0.00000000E+00  0.00000000E+00
  0.00000000E+00  0.00000000E+00  0.00000000E+00
  0.00000000E+00  0.00000000E+00  0.00000000E+00
  0.00000000E+00  0.00000000E+00  0.00000000E+00
  0.00000000E+00  0.00000000E+00  0.00000000E+00
  0.00000000E+00  0.00000000E+00  0.00000000E+00
  0.00000000E+00  0.00000000E+00  0.00000000E+00
  0.00000000E+00  0.00000000E+00  0.00000000E+00
  0.00000000E+00  0.00000000E+00  0.00000000E+00
  0.00000000E+00  0.00000000E+00  0.00000000E+00
  0.00000000E+00  0.00000000E+00  0.00000000E+00
  0.00000000E+00  0.00000000E+00  0.00000000E+00
  0.00000000E+00  0.00000000E+00  0.00000000E+00
  0.00000000E+00  0.00000000E+00  0.00000000E+00
  0.00000000E+00  0.00000000E+00  0.00000000E+00
  0.00000000E+00  0.00000000E+00  0.00000000E+00
  0.00000000E+00  0.00000000E+00  0.00000000E+00
  0.00000000E+00  0.00000000E+00  0.00000000E+00
  0.00000000E+00  0.00000000E+00  0.00000000E+00
  0.00000000E+00  0.00000000E+00  0.00000000E+00
  0.00000000E+00  0.00000000E+00  0.00000000E+00
