C4                                      
    1.000000000000000     
    17.2710380553999983    0.0000000000000000    0.0000000000000000
    -8.6355190276999991   14.9571577057000002    0.0000000000000000
     0.0000000000000000    0.0000000000000000   15.0000000000000000
   C    F 
    88     8
Direct
  0.0002432413338599  0.0001866430396741  0.2517032860107560
 -0.0003827487375549  0.1426502066007126  0.2509210430419996
 -0.0006277723193458  0.2854481266270754  0.2497761150904409
 -0.0007092384476996  0.4284801077993973  0.2482614963433635
 -0.0001582873944578  0.5715582605877185  0.2468753918786867
  0.0008617199219925  0.7146432701808642  0.2480026040471853
  0.0010901384716832  0.8579523829816001  0.2493882225334759
  0.1434805189345301  0.0005400060779088  0.2504094061398675
  0.1429905988214064  0.1431933920392652  0.2538454577841870
  0.1417349700353380  0.2849553928127977  0.2523329790938745
  0.1414481738052444  0.4282441391712672  0.2498572180296978
  0.1426281502862143  0.5713000406471812  0.2480213788188351
  0.1431489345519246  0.7143272598889041  0.2515594408967187
  0.1431820916591509  0.8573132873843109  0.2509483981823022
  0.2855618724212703 -0.0003391408466191  0.2514111024688499
  0.2861223636623259  0.1428287418411141  0.2512539077762869
  0.2862184007668538  0.2866060643281062  0.2562016558923831
  0.2825881163318321  0.4272879009155368  0.2532288626881952
  0.2856426047239109  0.5710689787889872  0.2493506208357681
  0.2857619304550015  0.7147421921575476  0.2534145372904944
  0.2854859979408421  0.8572698758863565  0.2535192235977505
  0.4285013744829186 -0.0001853171675833  0.2525064800815606
  0.4281652679110740  0.1416244098529636  0.2493267339381247
  0.4265409525834585  0.2783138533423735  0.2735963126358947
  0.4259016109033356  0.7188795957942088  0.2311764648740796
  0.4281798203864735  0.8575946783542835  0.2552554700777830
  0.5714084912971330  0.0003070098633507  0.2503951455576799
  0.5714065666567858  0.1422208098056501  0.2523538706517378
  0.5716453273914684  0.2839327619418127  0.2452807367252012
  0.5718580546709703  0.8586078234760990  0.2554061388534019
  0.7145598389770415  0.0005470769966413  0.2495911048130545
  0.7144991133589830  0.1429901189749560  0.2501674542484199
  0.7144347637366714  0.2854277645757549  0.2490078942031044
  0.7131569363073518  0.4274242921547574  0.2373895941707397
  0.7191598780626057  0.5746111176183039  0.2497548063173224
  0.7197728128290588  0.7175285298415670  0.2370691757362276
  0.7139115858631631  0.8577079940151935  0.2567424893710787
  0.8570445898206139  0.0000296651562601  0.2492246434995278
  0.8570250215873793  0.1429003532763695  0.2489810368223908
  0.8568928290413363  0.2856378015832399  0.2493262726831653
  0.8566269174138368  0.4285328278863702  0.2472718397328335
  0.8573043411028834  0.5718879709861303  0.2413199074216856
  0.8595151908183896  0.7157206109861789  0.2457803937474057
  0.8577993609665649  0.8574030352618627  0.2525619972268378
  0.0477339084294958  0.0954855471766263  0.2522030266173424
  0.0466368670124256  0.2375121876779118  0.2507119476576941
  0.0463644678387459  0.3806204523509523  0.2495320159757439
  0.0473543161388762  0.5237585002728570  0.2477438622664623
  0.0479525655029899  0.6668123177279354  0.2485070411243226
  0.0481754064610464  0.8098471123199625  0.2493881395392890
  0.0482583362054180  0.9529001529328301  0.2508590547158775
  0.1908221028048381  0.0955380934399175  0.2510257301987059
  0.1901194110423760  0.2382700733508888  0.2559316888425037
  0.1877346846085551  0.3797370254184900  0.2517445087201481
  0.1896658093001481  0.5232566623509679  0.2472123384916746
  0.1904461866169114  0.6667298444264758  0.2520333430800445
  0.1905617468952545  0.8096277724689577  0.2524229836802193
  0.1906644121354241  0.9523978297137973  0.2507780696205445
  0.3331784894093981  0.0947826235656589  0.2509394713404161
  0.3342427461686830  0.2380602306537617  0.2593453338841128
  0.3279378765857932  0.3789522322873435  0.2456769601827491
  0.3274523778869304  0.5208674030769976  0.2619421038250846
  0.3337234971783232  0.6675412412038756  0.2461377205110857
  0.3331211137830885  0.8097946165818131  0.2541469752020008
  0.3331391203728502  0.9522367005296321  0.2526603750559434
  0.4763132192501655  0.0946133922174183  0.2500420380419920
  0.4760383764125807  0.2362969150101475  0.2536000153968813
  0.4760210522505680  0.8106437884400708  0.2497883798939226
  0.4763078038044588  0.9527486476063647  0.2542282032514968
  0.6191710762860786  0.0951854036198446  0.2510837278965092
  0.6195208975468934  0.2372852804377467  0.2511529755248472
  0.6208763931914044  0.3749915190758012  0.2236570766066894
  0.6220697924973922  0.8169554652117944  0.2732742488759378
  0.6195602792802166  0.9533287547427099  0.2495435280264350
  0.7620915365974567  0.0956245337473391  0.2494073176175058
  0.7620139417490638  0.2379851609319994  0.2496676573412737
  0.7613348351803778  0.3804782930884135  0.2468033355929962
  0.7611162790337460  0.5240205950499082  0.2398967089774147
  0.7645324762332310  0.6684372379706857  0.2436952157806916
  0.7618589019814134  0.8093497314706228  0.2513539167788354
  0.7617842789101434  0.9527906765796639  0.2493083941181468
  0.9044128475907764  0.0949357996150457  0.2491958996522495
  0.9043687856636593  0.2379762904216288  0.2493240332609791
  0.9040660359915738  0.3809768066433343  0.2486354158065795
  0.9045792575497420  0.5240151101939163  0.2442250670045664
  0.9056631697156819  0.6669932973975589  0.2452792076720921
  0.9059717924533774  0.8105489437495754  0.2487581882039111
  0.9049604769686149  0.9524787061310706  0.2520915490931556
  0.4707182524513824  0.3584848414337301  0.3150396983252299
  0.4141128695999426  0.4261984712314215  0.2195149542904227
  0.4127475902526965  0.5602536075150295  0.2912290769294514
  0.6341611170885253  0.6726704459374656  0.2086706026347259
  0.6325343536340515  0.5353304445438452  0.2744956005545821
  0.5758575383667414  0.4097585292716759  0.1816972558556861
  0.5798087181123326  0.7365459838537777  0.3144988319332717
  0.4686647601781008  0.6811350797821142  0.1901308766991811
 
  0.00000000E+00  0.00000000E+00  0.00000000E+00
  0.00000000E+00  0.00000000E+00  0.00000000E+00
  0.00000000E+00  0.00000000E+00  0.00000000E+00
  0.00000000E+00  0.00000000E+00  0.00000000E+00
  0.00000000E+00  0.00000000E+00  0.00000000E+00
  0.00000000E+00  0.00000000E+00  0.00000000E+00
  0.00000000E+00  0.00000000E+00  0.00000000E+00
  0.00000000E+00  0.00000000E+00  0.00000000E+00
  0.00000000E+00  0.00000000E+00  0.00000000E+00
  0.00000000E+00  0.00000000E+00  0.00000000E+00
  0.00000000E+00  0.00000000E+00  0.00000000E+00
  0.00000000E+00  0.00000000E+00  0.00000000E+00
  0.00000000E+00  0.00000000E+00  0.00000000E+00
  0.00000000E+00  0.00000000E+00  0.00000000E+00
  0.00000000E+00  0.00000000E+00  0.00000000E+00
  0.00000000E+00  0.00000000E+00  0.00000000E+00
  0.00000000E+00  0.00000000E+00  0.00000000E+00
  0.00000000E+00  0.00000000E+00  0.00000000E+00
  0.00000000E+00  0.00000000E+00  0.00000000E+00
  0.00000000E+00  0.00000000E+00  0.00000000E+00
  0.00000000E+00  0.00000000E+00  0.00000000E+00
  0.00000000E+00  0.00000000E+00  0.00000000E+00
  0.00000000E+00  0.00000000E+00  0.00000000E+00
  0.00000000E+00  0.00000000E+00  0.00000000E+00
  0.00000000E+00  0.00000000E+00  0.00000000E+00
  0.00000000E+00  0.00000000E+00  0.00000000E+00
  0.00000000E+00  0.00000000E+00  0.00000000E+00
  0.00000000E+00  0.00000000E+00  0.00000000E+00
  0.00000000E+00  0.00000000E+00  0.00000000E+00
  0.00000000E+00  0.00000000E+00  0.00000000E+00
  0.00000000E+00  0.00000000E+00  0.00000000E+00
  0.00000000E+00  0.00000000E+00  0.00000000E+00
  0.00000000E+00  0.00000000E+00  0.00000000E+00
  0.00000000E+00  0.00000000E+00  0.00000000E+00
  0.00000000E+00  0.00000000E+00  0.00000000E+00
  0.00000000E+00  0.00000000E+00  0.00000000E+00
  0.00000000E+00  0.00000000E+00  0.00000000E+00
  0.00000000E+00  0.00000000E+00  0.00000000E+00
  0.00000000E+00  0.00000000E+00  0.00000000E+00
  0.00000000E+00  0.00000000E+00  0.00000000E+00
  0.00000000E+00  0.00000000E+00  0.00000000E+00
  0.00000000E+00  0.00000000E+00  0.00000000E+00
  0.00000000E+00  0.00000000E+00  0.00000000E+00
  0.00000000E+00  0.00000000E+00  0.00000000E+00
  0.00000000E+00  0.00000000E+00  0.00000000E+00
  0.00000000E+00  0.00000000E+00  0.00000000E+00
  0.00000000E+00  0.00000000E+00  0.00000000E+00
  0.00000000E+00  0.00000000E+00  0.00000000E+00
  0.00000000E+00  0.00000000E+00  0.00000000E+00
  0.00000000E+00  0.00000000E+00  0.00000000E+00
  0.00000000E+00  0.00000000E+00  0.00000000E+00
  0.00000000E+00  0.00000000E+00  0.00000000E+00
  0.00000000E+00  0.00000000E+00  0.00000000E+00
  0.00000000E+00  0.00000000E+00  0.00000000E+00
  0.00000000E+00  0.00000000E+00  0.00000000E+00
  0.00000000E+00  0.00000000E+00  0.00000000E+00
  0.00000000E+00  0.00000000E+00  0.00000000E+00
  0.00000000E+00  0.00000000E+00  0.00000000E+00
  0.00000000E+00  0.00000000E+00  0.00000000E+00
  0.00000000E+00  0.00000000E+00  0.00000000E+00
  0.00000000E+00  0.00000000E+00  0.00000000E+00
  0.00000000E+00  0.00000000E+00  0.00000000E+00
  0.00000000E+00  0.00000000E+00  0.00000000E+00
  0.00000000E+00  0.00000000E+00  0.00000000E+00
  0.00000000E+00  0.00000000E+00  0.00000000E+00
  0.00000000E+00  0.00000000E+00  0.00000000E+00
  0.00000000E+00  0.00000000E+00  0.00000000E+00
  0.00000000E+00  0.00000000E+00  0.00000000E+00
  0.00000000E+00  0.00000000E+00  0.00000000E+00
  0.00000000E+00  0.00000000E+00  0.00000000E+00
  0.00000000E+00  0.00000000E+00  0.00000000E+00
  0.00000000E+00  0.00000000E+00  0.00000000E+00
  0.00000000E+00  0.00000000E+00  0.00000000E+00
  0.00000000E+00  0.00000000E+00  0.00000000E+00
  0.00000000E+00  0.00000000E+00  0.00000000E+00
  0.00000000E+00  0.00000000E+00  0.00000000E+00
  0.00000000E+00  0.00000000E+00  0.00000000E+00
  0.00000000E+00  0.00000000E+00  0.00000000E+00
  0.00000000E+00  0.00000000E+00  0.00000000E+00
  0.00000000E+00  0.00000000E+00  0.00000000E+00
  0.00000000E+00  0.00000000E+00  0.00000000E+00
  0.00000000E+00  0.00000000E+00  0.00000000E+00
  0.00000000E+00  0.00000000E+00  0.00000000E+00
  0.00000000E+00  0.00000000E+00  0.00000000E+00
  0.00000000E+00  0.00000000E+00  0.00000000E+00
  0.00000000E+00  0.00000000E+00  0.00000000E+00
  0.00000000E+00  0.00000000E+00  0.00000000E+00
  0.00000000E+00  0.00000000E+00  0.00000000E+00
  0.00000000E+00  0.00000000E+00  0.00000000E+00
  0.00000000E+00  0.00000000E+00  0.00000000E+00
  0.00000000E+00  0.00000000E+00  0.00000000E+00
  0.00000000E+00  0.00000000E+00  0.00000000E+00
  0.00000000E+00  0.00000000E+00  0.00000000E+00
  0.00000000E+00  0.00000000E+00  0.00000000E+00
  0.00000000E+00  0.00000000E+00  0.00000000E+00
  0.00000000E+00  0.00000000E+00  0.00000000E+00
