C    H    F    O 
    1.000000000000000     
  17.2710380553999983   0.0000000000000000   0.0000000000000000
  -8.6355190276999991  14.9571577057000002   0.0000000000000000
   0.0000000000000000   0.0000000000000000  15.0000000000000000
C    H    F    O 
88  6  4  1  
Selective dynamics
Direct
  0.0000300141890572  0.0000324429254243  0.5049873117710383 T T T
  0.9997204853771410  0.1427307709190295  0.5048988234709553 T T T
  0.9995370489978250  0.2855567442204855  0.5036336904816591 T T T
  0.9997245232884709  0.4285231628997209  0.5039622348966372 T T T
  0.0000590080212075  0.5715183991610666  0.5033254743029221 T T T
  0.0008872449143790  0.7146679657138997  0.5012242428712353 T T T
  0.0008586971486412  0.8577362129140912  0.5020302533899340 T T T
  0.1430939027568317  0.0003404103156715  0.5046734515873427 T T T
  0.1427738257199854  0.1430429190800639  0.5020904524612448 T T T
  0.1418043446873301  0.2850985721333159  0.4960389492177703 T T T
  0.1418442127157216  0.4282161918371669  0.4954163053933512 T T T
  0.1428007353974302  0.5712291938444467  0.5004775411461666 T T T
  0.1431406842163941  0.7142501852394750  0.5032002343844546 T T T
  0.1431864901773071  0.8573350865748941  0.5047859259646543 T T T
  0.2855385894468688  0.9997825021123939  0.5053562942453846 T T T
  0.2855514953735763  0.1424969499431271  0.5002756537191644 T T T
  0.2852129776435113  0.2855842635029737  0.4857149354374101 T T T
  0.2818975575325344  0.4265993675443884  0.4716356953720567 T T T
  0.2853028323804008  0.5710869939266229  0.4847462654103959 T T T
  0.2856307902726706  0.7145799914742932  0.4986519467317224 T T T
  0.2855819363101649  0.8572895955434512  0.5046236884219421 T T T
  0.4285325755159970  0.0000528086734734  0.5058041808569582 T T T
  0.4283060200910371  0.1421329853981344  0.5050500302727781 T T T
  0.4269437087134202  0.2817084924088515  0.5010931245951892 T T T
  0.4270379593765237  0.7168438522334782  0.4997815990682679 T T T
  0.4283705224958121  0.8577647299680914  0.5041020105203619 T T T
  0.5714013387415279  0.0004987970708668  0.5058403961942791 T T T
  0.5713916492029076  0.1425002505655424  0.5059980978586205 T T T
  0.5721306840326612  0.2853203335480308  0.5048469304945316 T T T
  0.5721846912035252  0.8584234317547310  0.5042327910587012 T T T
  0.7143607500192087  0.0002678639761137  0.5041597010111059 T T T
  0.7144448622204884  0.1430121964885907  0.5066241662619448 T T T
  0.7143620670396549  0.2856674364257633  0.5039952437512527 T T T
  0.7134303137385414  0.4274256011000352  0.4943954021322586 T T T
  0.7220363546594348  0.5747628914570686  0.4664864525309502 T T T
  0.7221211547263632  0.7189640871336320  0.4664160486141797 T T T
  0.7135258138092840  0.8576671966620611  0.4945253962477426 T T T
  0.8571937520645814  0.0001837663479764  0.5024243566803892 T T T
  0.8569968529642897  0.1428806436190710  0.5060108775128825 T T T
  0.8569825172497376  0.2856521198317355  0.5055995621972397 T T T
  0.8571635000236570  0.4285258851940104  0.5016280480482945 T T T
  0.8578710749752603  0.5719874604733801  0.4946994182527474 T T T
  0.8596826294864895  0.7156256309428766  0.4889041384697536 T T T
  0.8578443224654841  0.8573967473118408  0.4956049404723189 T T T
  0.0476431410106759  0.0953887022899252  0.5048792009416746 T T T
  0.0467857421974645  0.2376606845261075  0.5025284425585093 T T T
  0.0468200729434238  0.3806812359622106  0.5019057300710433 T T T
  0.0476646255076911  0.5237839375456899  0.5034239087393260 T T T
  0.0479468253079406  0.6667938708156900  0.5031674528737552 T T T
  0.0481186129056866  0.8098224981371168  0.5028727352601706 T T T
  0.0479104121480582  0.9526471779895592  0.5045325764903984 T T T
  0.1904423767927605  0.0951902330390553  0.5021937431165731 T T T
  0.1897982608527190  0.2380015930413353  0.4957514257682570 T T T
  0.1880522791401271  0.3797423627771479  0.4890716948485576 T T T
  0.1898426253301531  0.5233021394654579  0.4944942025497863 T T T
  0.1904959389998498  0.6667552383649722  0.5004015963891378 T T T
  0.1906416994989572  0.8096437406079831  0.5043230401481952 T T T
  0.1906052431886119  0.9524585751004468  0.5050860459694743 T T T
  0.3331979230249126  0.0950767439209530  0.5040902304516280 T T T
  0.3340733657734194  0.2377266115546555  0.4948373097731038 T T T
  0.3255899557726111  0.3763153680121248  0.4660185038554598 T T T
  0.3256907434008812  0.5205453858201894  0.4659600465847729 T T T
  0.3341569237554922  0.6678549453579764  0.4935515448793096 T T T
  0.3332614274474006  0.8096576221424806  0.5028244289290413 T T T
  0.3331108220145287  0.9523147320130462  0.5056951000222996 T T T
  0.4761870065718324  0.0948910696555526  0.5058830012196376 T T T
  0.4753577165462922  0.2369458418811960  0.5050352029567260 T T T
  0.4754098840779265  0.8099960468088008  0.5040429058956000 T T T
  0.4762074537940543  0.9528941828933332  0.5054620844594095 T T T
  0.6190284386281429  0.0953160445851692  0.5063367640399794 T T T
  0.6192367206261221  0.2376188478011877  0.5049927131417988 T T T
  0.6205208653591098  0.3784597404821807  0.5004469630453600 T T T
  0.6206159683591945  0.8137191008665847  0.5001460415665540 T T T
  0.6192501979364260  0.9532206445882044  0.5047287404381541 T T T
  0.7620165382000783  0.0955518194936027  0.5061159974699686 T T T
  0.7620268180432194  0.2380376580431761  0.5059133513366565 T T T
  0.7620082093192816  0.3807259926072256  0.4998812808414935 T T T
  0.7623824013807723  0.5242004333766102  0.4853330009626912 T T T
  0.7658252081909653  0.6687192005351023  0.4720093008102310 T T T
  0.7624216527024861  0.8097893081417343  0.4856566255326199 T T T
  0.7620561713752719  0.9528921565175535  0.5002329653059209 T T T
  0.9045170363713492  0.0950224953788226  0.5051876866463721 T T T
  0.9044611399343900  0.2380193191171398  0.5058505298856246 T T T
  0.9045094868542184  0.3810253219159182  0.5044316563174326 T T T
  0.9048846683760038  0.5240483708949720  0.5009431716185729 T T T
  0.9058772376112172  0.6671012860004796  0.4950701895654248 T T T
  0.9058419556903932  0.8102891078919160  0.4957677023002503 T T T
  0.9048780912563780  0.9523439345360518  0.5021543558384289 T T T
  0.4632661719467228  0.3537459003867776  0.5015582492197846 T T T
  0.5841667431539240  0.4141448420992311  0.5007616718650870 T T T
  0.5842913945900733  0.7416883555118053  0.5003314992941182 T T T
  0.4633950309907213  0.6811834756427936  0.5003983113740154 T T T
  0.5234513672927763  0.5907067818347501  0.5635957577758907 T T T
  0.5227503006130981  0.5027481946854607  0.5644123762379196 T T T
  0.4132151297046268  0.4210708359227875  0.4407920220229132 T T T
  0.4136522262164711  0.5631412376135621  0.4420055272401339 T T T
  0.6342733689695684  0.6737923645129463  0.4420402521332310 T T T
  0.6340938047491632  0.5321110653137672  0.4424763778392316 T T T
  0.5228996371710135  0.5469097805681519  0.6046639079999991 T T F
