C    H    N    O                        
    1.000000000000000     
    17.2710380553999983    0.0000000000000000    0.0000000000000000
    -8.6355190276999991   14.9571577057000002    0.0000000000000000
     0.0000000000000000    0.0000000000000000   15.0000000000000000
   C    H    N    O 
    86     8     2     1
Selective dynamics
Direct
  0.9989460944407185  0.9992313334337819  0.4989590548979821   T   T   T
  0.9989455929397755  0.1420474786206173  0.4997857207728673   T   T   T
  0.9990298302156270  0.2851978202219448  0.5003457651010779   T   T   T
  0.9989396847861653  0.4282577975705994  0.5002465902421634   T   T   T
  0.9989793842756980  0.5710966294965324  0.4994562281066693   T   T   T
  0.9991741983253744  0.7137589403033197  0.4990967255737818   T   T   T
  0.9991490609508914  0.8567952141900542  0.4989774201244987   T   T   T
  0.1425775123395852  1.0000056281519849  0.4989684114958962   T   T   T
  0.1422006172729258  0.1425249584375009  0.5001316488511054   T   T   T
  0.1413318477512347  0.2846794137958537  0.5014848302260800   T   T   T
  0.1413252394623978  0.4279962486308564  0.5018304370598424   T   T   T
  0.1422017634468677  0.5710173078126825  0.5008155570521501   T   T   T
  0.1426035470529684  0.7139530935574855  0.4993537000721997   T   T   T
  0.1425508620832110  0.8569610548277672  0.4987436008773387   T   T   T
  0.2857316437562741  1.0000069304127204  0.4990144092032637   T   T   T
  0.2859800780299701  0.1430708194612014  0.5002900603796306   T   T   T
  0.2855302560804160  0.2868107755589991  0.5027071547596454   T   T   T
  0.2829080898051619  0.4271047077521451  0.5042451660579663   T   T   T
  0.2855094716490792  0.5700126192970775  0.5032291794852565   T   T   T
  0.2859761977023736  0.7142284857623272  0.5008533625741743   T   T   T
  0.2857391465173583  0.8570789439180657  0.4992367531843941   T   T   T
  0.4286301580277101  0.9999795709031069  0.4991441583513426   T   T   T
  0.4292796075326099  0.1435138533012087  0.4997250321576917   T   T   T
  0.4280722561580070  0.2836824206711662  0.5016875817526124   T   T   T
  0.4280752193079735  0.7157052673525430  0.5024519862527055   T   T   T
  0.4292809019798013  0.8570826104682520  0.5000991463823237   T   T   T
  0.5711977147309069  0.9999382509383264  0.4997377097352417   T   T   T
  0.5712177387948970  0.1426518237346044  0.4995034120500675   T   T   T
  0.5746082797059615  0.2885775606813759  0.5007166896912038   T   T   T
  0.5746110439830739  0.8574230842668107  0.5011728248177352   T   T   T
  0.7140520444474112  0.0003417380373018  0.5002600209917235   T   T   T
  0.7139636371044968  0.1426848111593571  0.4994912870537725   T   T   T
  0.7140687069219966  0.2851373889060770  0.5001235241593391   T   T   T
  0.7096865757452889  0.4243280920869915  0.5025711782365649   T   T   T
  0.7146287181687573  0.5712804221656792  0.5106433094860571   T   T   T
  0.7146289074629547  0.7147360761865997  0.5106400850101106   T   T   T
  0.7097096931694961  0.8567905007300751  0.5026555932949417   T   T   T
  0.8560658030215087  0.9993393207290029  0.5001179324579998   T   T   T
  0.8564929383490443  0.1425685343775187  0.4997313207381202   T   T   T
  0.8565093502308798  0.2853489185794115  0.4998209093593953   T   T   T
  0.8560864289690008  0.4281353789983739  0.5003689595769250   T   T   T
  0.8551712942448213  0.5702727222312423  0.5010997161547887   T   T   T
  0.8562446367452649  0.7138082526824646  0.5021672158218483   T   T   T
  0.8551473586287179  0.8562601337967015  0.5008940170609001   T   T   T
  0.0468321797569782  0.0946015045322655  0.4994816851900951   T   T   T
  0.0461190441261460  0.2370665488708928  0.5004547712982985   T   T   T
  0.0461213781026845  0.3804255445984309  0.5007788205801667   T   T   T
  0.0468350618257111  0.5235843457779598  0.5001078919813281   T   T   T
  0.0469771912492156  0.6664079628692260  0.4991048591460873   T   T   T
  0.0468263112419692  0.8091003617527555  0.4988178597579280   T   T   T
  0.0469527758835615  0.9519320233902930  0.4987659131154423   T   T   T
  0.1903038876776380  0.0950490687762845  0.4997618370543498   T   T   T
  0.1895497616586601  0.2376563315808520  0.5014610521072047   T   T   T
  0.1877160880191986  0.3795453271701468  0.5025359754781688   T   T   T
  0.1895460381194775  0.5232213433809851  0.5020530635266969   T   T   T
  0.1903100838274796  0.6665958323373272  0.5003046707772335   T   T   T
  0.1903969754293950  0.8094576218038658  0.4990500423049682   T   T   T
  0.1904037024259421  0.9523230192406832  0.4988421321815777   T   T   T
  0.3338215237980652  0.0957465261670046  0.4995803478013392   T   T   T
  0.3346369221489158  0.2385684056953792  0.5016271299797023   T   T   T
  0.3293394728044571  0.3794996137535510  0.5045130257927545   T   T   T
  0.3293357471736120  0.5211294165753261  0.5046959819226495   T   T   T
  0.3346364349587503  0.6673769738233809  0.5022855917074771   T   T   T
  0.3338098092653266  0.8093928483406441  0.4999923487165155   T   T   T
  0.3331600552752191  0.9522586159576389  0.4989924368182970   T   T   T
  0.4762157980693632  0.0951727609522898  0.4993293300389622   T   T   T
  0.4769206237740068  0.2392302938719243  0.5005345678582709   T   T   T
  0.4769139615213827  0.8090034595107415  0.5011175950015383   T   T   T
  0.4762103666119481  0.9523832118663039  0.4995293059028124   T   T   T
  0.6186411828908489  0.0950104400044207  0.4994682147413881   T   T   T
  0.6193446383094771  0.2380850302236805  0.5000866935705283   T   T   T
  0.6193427843617867  0.9526610737213514  0.5004356475937373   T   T   T
  0.7616524767648238  0.0954822055856988  0.4996444277509641   T   T   T
  0.7616495361853981  0.2375725565613447  0.4996396265229676   T   T   T
  0.7607169375243117  0.3799388038613730  0.5009939675218932   T   T   T
  0.7587459515416793  0.5226264989522572  0.5045352046340096   T   T   T
  0.7604681273758707  0.6659245008622880  0.5080212061479369   T   T   T
  0.7587370038321591  0.8075096918866027  0.5044501935871916   T   T   T
  0.7607025419374329  0.9522098193436754  0.5009826779571723   T   T   T
  0.9036739232795933  0.0943286678243513  0.4997594906543844   T   T   T
  0.9039874272443480  0.2376884362301128  0.4998461094973908   T   T   T
  0.9037006807345104  0.3807479596893521  0.5000120571469281   T   T   T
  0.9035416039522249  0.5234799941794946  0.4999329533219031   T   T   T
  0.9033139365080900  0.6657377008251570  0.5005522899684229   T   T   T
  0.9032862221384693  0.8089332825304678  0.5004195138402961   T   T   T
  0.9035060467170252  0.9514198702257181  0.4995834666535737   T   T   T
  0.4665473082881376  0.3563035606848888  0.5028804931862928   T   T   T
  0.4018764860941331  0.4191305353208009  0.5047977690599466   T   T   T
  0.4018724955528475  0.5540695958490167  0.5049226436006281   T   T   T
  0.6422406286386136  0.6789952077056790  0.5187593509666023   T   T   T
  0.6422357165051376  0.5346471862615892  0.5187148896098233   T   T   T
  0.4665527816649522  0.6815681658299820  0.5038252220562182   T   T   T
  0.5561296407800184  0.6085109262384802  0.4207609710616876   T   T   T
  0.5570028027569155  0.5198517181654138  0.4205514188107135   T   T   T
  0.6196162465473189  0.3791105309183823  0.5017279433819822   T   T   T
  0.6196387850083600  0.8119222359631387  0.5020556482525796   T   T   T
  0.5178893328057202  0.5445391947614455  0.4302241371666824   T   T   F
 
  0.00000000E+00  0.00000000E+00  0.00000000E+00
  0.00000000E+00  0.00000000E+00  0.00000000E+00
  0.00000000E+00  0.00000000E+00  0.00000000E+00
  0.00000000E+00  0.00000000E+00  0.00000000E+00
  0.00000000E+00  0.00000000E+00  0.00000000E+00
  0.00000000E+00  0.00000000E+00  0.00000000E+00
  0.00000000E+00  0.00000000E+00  0.00000000E+00
  0.00000000E+00  0.00000000E+00  0.00000000E+00
  0.00000000E+00  0.00000000E+00  0.00000000E+00
  0.00000000E+00  0.00000000E+00  0.00000000E+00
  0.00000000E+00  0.00000000E+00  0.00000000E+00
  0.00000000E+00  0.00000000E+00  0.00000000E+00
  0.00000000E+00  0.00000000E+00  0.00000000E+00
  0.00000000E+00  0.00000000E+00  0.00000000E+00
  0.00000000E+00  0.00000000E+00  0.00000000E+00
  0.00000000E+00  0.00000000E+00  0.00000000E+00
  0.00000000E+00  0.00000000E+00  0.00000000E+00
  0.00000000E+00  0.00000000E+00  0.00000000E+00
  0.00000000E+00  0.00000000E+00  0.00000000E+00
  0.00000000E+00  0.00000000E+00  0.00000000E+00
  0.00000000E+00  0.00000000E+00  0.00000000E+00
  0.00000000E+00  0.00000000E+00  0.00000000E+00
  0.00000000E+00  0.00000000E+00  0.00000000E+00
  0.00000000E+00  0.00000000E+00  0.00000000E+00
  0.00000000E+00  0.00000000E+00  0.00000000E+00
  0.00000000E+00  0.00000000E+00  0.00000000E+00
  0.00000000E+00  0.00000000E+00  0.00000000E+00
  0.00000000E+00  0.00000000E+00  0.00000000E+00
  0.00000000E+00  0.00000000E+00  0.00000000E+00
  0.00000000E+00  0.00000000E+00  0.00000000E+00
  0.00000000E+00  0.00000000E+00  0.00000000E+00
  0.00000000E+00  0.00000000E+00  0.00000000E+00
  0.00000000E+00  0.00000000E+00  0.00000000E+00
  0.00000000E+00  0.00000000E+00  0.00000000E+00
  0.00000000E+00  0.00000000E+00  0.00000000E+00
  0.00000000E+00  0.00000000E+00  0.00000000E+00
  0.00000000E+00  0.00000000E+00  0.00000000E+00
  0.00000000E+00  0.00000000E+00  0.00000000E+00
  0.00000000E+00  0.00000000E+00  0.00000000E+00
  0.00000000E+00  0.00000000E+00  0.00000000E+00
  0.00000000E+00  0.00000000E+00  0.00000000E+00
  0.00000000E+00  0.00000000E+00  0.00000000E+00
  0.00000000E+00  0.00000000E+00  0.00000000E+00
  0.00000000E+00  0.00000000E+00  0.00000000E+00
  0.00000000E+00  0.00000000E+00  0.00000000E+00
  0.00000000E+00  0.00000000E+00  0.00000000E+00
  0.00000000E+00  0.00000000E+00  0.00000000E+00
  0.00000000E+00  0.00000000E+00  0.00000000E+00
  0.00000000E+00  0.00000000E+00  0.00000000E+00
  0.00000000E+00  0.00000000E+00  0.00000000E+00
  0.00000000E+00  0.00000000E+00  0.00000000E+00
  0.00000000E+00  0.00000000E+00  0.00000000E+00
  0.00000000E+00  0.00000000E+00  0.00000000E+00
  0.00000000E+00  0.00000000E+00  0.00000000E+00
  0.00000000E+00  0.00000000E+00  0.00000000E+00
  0.00000000E+00  0.00000000E+00  0.00000000E+00
  0.00000000E+00  0.00000000E+00  0.00000000E+00
  0.00000000E+00  0.00000000E+00  0.00000000E+00
  0.00000000E+00  0.00000000E+00  0.00000000E+00
  0.00000000E+00  0.00000000E+00  0.00000000E+00
  0.00000000E+00  0.00000000E+00  0.00000000E+00
  0.00000000E+00  0.00000000E+00  0.00000000E+00
  0.00000000E+00  0.00000000E+00  0.00000000E+00
  0.00000000E+00  0.00000000E+00  0.00000000E+00
  0.00000000E+00  0.00000000E+00  0.00000000E+00
  0.00000000E+00  0.00000000E+00  0.00000000E+00
  0.00000000E+00  0.00000000E+00  0.00000000E+00
  0.00000000E+00  0.00000000E+00  0.00000000E+00
  0.00000000E+00  0.00000000E+00  0.00000000E+00
  0.00000000E+00  0.00000000E+00  0.00000000E+00
  0.00000000E+00  0.00000000E+00  0.00000000E+00
  0.00000000E+00  0.00000000E+00  0.00000000E+00
  0.00000000E+00  0.00000000E+00  0.00000000E+00
  0.00000000E+00  0.00000000E+00  0.00000000E+00
  0.00000000E+00  0.00000000E+00  0.00000000E+00
  0.00000000E+00  0.00000000E+00  0.00000000E+00
  0.00000000E+00  0.00000000E+00  0.00000000E+00
  0.00000000E+00  0.00000000E+00  0.00000000E+00
  0.00000000E+00  0.00000000E+00  0.00000000E+00
  0.00000000E+00  0.00000000E+00  0.00000000E+00
  0.00000000E+00  0.00000000E+00  0.00000000E+00
  0.00000000E+00  0.00000000E+00  0.00000000E+00
  0.00000000E+00  0.00000000E+00  0.00000000E+00
  0.00000000E+00  0.00000000E+00  0.00000000E+00
  0.00000000E+00  0.00000000E+00  0.00000000E+00
  0.00000000E+00  0.00000000E+00  0.00000000E+00
  0.00000000E+00  0.00000000E+00  0.00000000E+00
  0.00000000E+00  0.00000000E+00  0.00000000E+00
  0.00000000E+00  0.00000000E+00  0.00000000E+00
  0.00000000E+00  0.00000000E+00  0.00000000E+00
  0.00000000E+00  0.00000000E+00  0.00000000E+00
  0.00000000E+00  0.00000000E+00  0.00000000E+00
  0.00000000E+00  0.00000000E+00  0.00000000E+00
  0.00000000E+00  0.00000000E+00  0.00000000E+00
  0.00000000E+00  0.00000000E+00  0.00000000E+00
  0.00000000E+00  0.00000000E+00  0.00000000E+00
  0.00000000E+00  0.00000000E+00  0.00000000E+00
