C4                                      
    1.000000000000000     
    17.2710380553999983    0.0000000000000000    0.0000000000000000
    -8.6355190276999991   14.9571577057000002    0.0000000000000000
     0.0000000000000000    0.0000000000000000   15.0000000000000000
   C    F    N 
    86     6     2
Direct
  0.0011043042677129  0.0005316787580453  0.2485630180418468
  0.0002968652061479  0.1427050023777038  0.2545879785358681
 -0.0004733638337029  0.2850837398755333  0.2569165545471819
 -0.0012435258699445  0.4279406263735832  0.2552520610469830
 -0.0011175809275679  0.5709712778590794  0.2482438171455732
  0.0006693333146934  0.7143474371460835  0.2441438118021047
  0.0020659069234095  0.8581387419158140  0.2443809892966508
  0.1438690000592165  0.0002403951112357  0.2437340842030979
  0.1439947158276433  0.1433095188331077  0.2474714462476419
  0.1431924942712183  0.2850666854354105  0.2518274370473810
  0.1416928927841034  0.4275759108174669  0.2534384118642986
  0.1418496201930878  0.5705163887499703  0.2511635004362508
  0.1427848906877894  0.7135766457867306  0.2429951128323906
  0.1434634874976242  0.8567281997621488  0.2421000333644578
  0.2857032736137345 -0.0013865012404225  0.2425060802574905
  0.2862895789564352  0.1416670695012036  0.2430187655721001
  0.2885513399982566  0.2862348937442943  0.2445681011953968
  0.2843794366305825  0.4275072120304122  0.2425756461350738
  0.2848328907647151  0.5703766836028428  0.2521904069483604
  0.2852869719934326  0.7139336184137655  0.2463543283369087
  0.2856855849251701  0.8564196795934124  0.2429313697677410
  0.4287730893429932 -0.0010260079861090  0.2449416729733894
  0.4278939271113515  0.1409895040681154  0.2427005753894740
  0.4235094923624666  0.7173573813871086  0.2784125870370807
  0.4283277345087912  0.8563123885819014  0.2483579939660001
  0.5714885673698873 -0.0006287225844882  0.2545183746229628
  0.5709394100630256  0.1420241299852271  0.2509932787590740
  0.5694963044209814  0.2844863517110279  0.2397802716885962
  0.5719656173003788  0.8564720060574509  0.2558608466880565
  0.7146184260213334 -0.0008773671520025  0.2571757263420582
  0.7140774184060646  0.1423703053528654  0.2574087670003093
  0.7129120131274768  0.2854490672610915  0.2545314445709345
  0.7122410992886068  0.4287976990308473  0.2492174719921562
  0.7200500989096786  0.5783736053709645  0.2705457998775042
  0.7150839529499521  0.8556068278667025  0.2515417400237463
  0.8576627643170589 -0.0002361727174469  0.2557864485540794
  0.8569683616922272  0.1424451764266529  0.2583295494887825
  0.8561731874272704  0.2852335158866101  0.2582416563875541
  0.8556497209982673  0.4283546000555961  0.2555732769026912
  0.8563246500366103  0.5722712216864366  0.2489147935859789
  0.8599818767765809  0.7165492997642917  0.2493283517539142
  0.8592635497860862  0.8577829848106351  0.2502516857931663
  0.0486502742697422  0.0957755013422158  0.2504314403922560
  0.0476170997578782  0.2376444037259386  0.2552176225149090
  0.0463592187070797  0.3801895824582119  0.2555207084644801
  0.0464968230366082  0.5231562591368875  0.2517638561432794
  0.0474677535016328  0.6662226315184400  0.2445210664088298
  0.0485212405022724  0.8095356604887493  0.2430525174639776
  0.0488744747601038  0.9530142198236925  0.2450494623393279
  0.1912363891101773  0.0951209459171224  0.2443731670252839
  0.1921000791872650  0.2384455613148639  0.2478233286823778
  0.1892118806669729  0.3798647206149333  0.2506795220716644
  0.1890866404630048  0.5225585739926299  0.2538352261605179
  0.1899148864374139  0.6658571507904290  0.2451332554759061
  0.1907011548083735  0.8089321607568474  0.2419756772214885
  0.1908906271407596  0.9518021814188798  0.2425315568764701
  0.3331627151886231  0.0936419933926977  0.2425227224574122
  0.3374450687583370  0.2369768261437544  0.2430213285694901
  0.3309603855595468  0.3793885083967238  0.2423394218739337
  0.3278363713338137  0.5215666445849788  0.2366350111561034
  0.3325360385455404  0.6667002411959645  0.2575436392806439
  0.3331963289669851  0.8089084549176456  0.2455080423276350
  0.3333954116926658  0.9513408488059342  0.2428385693412528
  0.4761321992953333  0.0940123624357476  0.2458993453538745
  0.4722223861369035  0.2360181953951975  0.2397764546555280
  0.4756729416305033  0.8090425484307869  0.2594555532517289
  0.4764511967909109  0.9516530948245615  0.2480560503874918
  0.6187408155964235  0.0945887709313276  0.2551307800038780
  0.6176158125413523  0.2375213752906252  0.2501251973128236
  0.6205727257492928  0.3780258138149982  0.2302600683670718
  0.6219720086766140  0.8131591641707557  0.2432374891819211
  0.6195044575320692  0.9517981587772899  0.2572810409690975
  0.7618334845661361  0.0947090161405196  0.2580427193757566
  0.7609916797667511  0.2376929675251545  0.2573002585100972
  0.7601212546566907  0.3808702013197188  0.2553152151218734
  0.7601538155788902  0.5260976693929037  0.2549130800990958
  0.7656218529593189  0.6731065375898448  0.2605894991606050
  0.7635916550867113  0.8063559734263506  0.2538591371399495
  0.7623011134271894  0.9512735807571726  0.2565367192268185
  0.9048341211925263  0.0948160055850951  0.2567532697648892
  0.9041413720178826  0.2376367003405647  0.2584515623861098
  0.9033197530415166  0.3806925972890552  0.2568612967075500
  0.9033550581185505  0.5238322153183060  0.2500327168413915
  0.9054850895793802  0.6672514379115514  0.2469319973019458
  0.9072725985019537  0.8110772986044642  0.2472678672994954
  0.9058885488917159  0.9527395417898589  0.2512563043329219
  0.4204871208733900  0.4278110431665714  0.2431270794248132
  0.4138133407990310  0.5652839443416141  0.2098830946155329
  0.6350874565660707  0.5406065639294121  0.2995217940331864
  0.5799524009856295  0.4203199202651791  0.1959726685923589
  0.5779841471627111  0.7275976620516226  0.2157856238474886
  0.4609537980511801  0.6776248237301952  0.3252189648895170
  0.4270172291601029  0.2809496133261967  0.2407870772693206
  0.7192548947370448  0.7172677180255833  0.2626776643063218
 
  0.00000000E+00  0.00000000E+00  0.00000000E+00
  0.00000000E+00  0.00000000E+00  0.00000000E+00
  0.00000000E+00  0.00000000E+00  0.00000000E+00
  0.00000000E+00  0.00000000E+00  0.00000000E+00
  0.00000000E+00  0.00000000E+00  0.00000000E+00
  0.00000000E+00  0.00000000E+00  0.00000000E+00
  0.00000000E+00  0.00000000E+00  0.00000000E+00
  0.00000000E+00  0.00000000E+00  0.00000000E+00
  0.00000000E+00  0.00000000E+00  0.00000000E+00
  0.00000000E+00  0.00000000E+00  0.00000000E+00
  0.00000000E+00  0.00000000E+00  0.00000000E+00
  0.00000000E+00  0.00000000E+00  0.00000000E+00
  0.00000000E+00  0.00000000E+00  0.00000000E+00
  0.00000000E+00  0.00000000E+00  0.00000000E+00
  0.00000000E+00  0.00000000E+00  0.00000000E+00
  0.00000000E+00  0.00000000E+00  0.00000000E+00
  0.00000000E+00  0.00000000E+00  0.00000000E+00
  0.00000000E+00  0.00000000E+00  0.00000000E+00
  0.00000000E+00  0.00000000E+00  0.00000000E+00
  0.00000000E+00  0.00000000E+00  0.00000000E+00
  0.00000000E+00  0.00000000E+00  0.00000000E+00
  0.00000000E+00  0.00000000E+00  0.00000000E+00
  0.00000000E+00  0.00000000E+00  0.00000000E+00
  0.00000000E+00  0.00000000E+00  0.00000000E+00
  0.00000000E+00  0.00000000E+00  0.00000000E+00
  0.00000000E+00  0.00000000E+00  0.00000000E+00
  0.00000000E+00  0.00000000E+00  0.00000000E+00
  0.00000000E+00  0.00000000E+00  0.00000000E+00
  0.00000000E+00  0.00000000E+00  0.00000000E+00
  0.00000000E+00  0.00000000E+00  0.00000000E+00
  0.00000000E+00  0.00000000E+00  0.00000000E+00
  0.00000000E+00  0.00000000E+00  0.00000000E+00
  0.00000000E+00  0.00000000E+00  0.00000000E+00
  0.00000000E+00  0.00000000E+00  0.00000000E+00
  0.00000000E+00  0.00000000E+00  0.00000000E+00
  0.00000000E+00  0.00000000E+00  0.00000000E+00
  0.00000000E+00  0.00000000E+00  0.00000000E+00
  0.00000000E+00  0.00000000E+00  0.00000000E+00
  0.00000000E+00  0.00000000E+00  0.00000000E+00
  0.00000000E+00  0.00000000E+00  0.00000000E+00
  0.00000000E+00  0.00000000E+00  0.00000000E+00
  0.00000000E+00  0.00000000E+00  0.00000000E+00
  0.00000000E+00  0.00000000E+00  0.00000000E+00
  0.00000000E+00  0.00000000E+00  0.00000000E+00
  0.00000000E+00  0.00000000E+00  0.00000000E+00
  0.00000000E+00  0.00000000E+00  0.00000000E+00
  0.00000000E+00  0.00000000E+00  0.00000000E+00
  0.00000000E+00  0.00000000E+00  0.00000000E+00
  0.00000000E+00  0.00000000E+00  0.00000000E+00
  0.00000000E+00  0.00000000E+00  0.00000000E+00
  0.00000000E+00  0.00000000E+00  0.00000000E+00
  0.00000000E+00  0.00000000E+00  0.00000000E+00
  0.00000000E+00  0.00000000E+00  0.00000000E+00
  0.00000000E+00  0.00000000E+00  0.00000000E+00
  0.00000000E+00  0.00000000E+00  0.00000000E+00
  0.00000000E+00  0.00000000E+00  0.00000000E+00
  0.00000000E+00  0.00000000E+00  0.00000000E+00
  0.00000000E+00  0.00000000E+00  0.00000000E+00
  0.00000000E+00  0.00000000E+00  0.00000000E+00
  0.00000000E+00  0.00000000E+00  0.00000000E+00
  0.00000000E+00  0.00000000E+00  0.00000000E+00
  0.00000000E+00  0.00000000E+00  0.00000000E+00
  0.00000000E+00  0.00000000E+00  0.00000000E+00
  0.00000000E+00  0.00000000E+00  0.00000000E+00
  0.00000000E+00  0.00000000E+00  0.00000000E+00
  0.00000000E+00  0.00000000E+00  0.00000000E+00
  0.00000000E+00  0.00000000E+00  0.00000000E+00
  0.00000000E+00  0.00000000E+00  0.00000000E+00
  0.00000000E+00  0.00000000E+00  0.00000000E+00
  0.00000000E+00  0.00000000E+00  0.00000000E+00
  0.00000000E+00  0.00000000E+00  0.00000000E+00
  0.00000000E+00  0.00000000E+00  0.00000000E+00
  0.00000000E+00  0.00000000E+00  0.00000000E+00
  0.00000000E+00  0.00000000E+00  0.00000000E+00
  0.00000000E+00  0.00000000E+00  0.00000000E+00
  0.00000000E+00  0.00000000E+00  0.00000000E+00
  0.00000000E+00  0.00000000E+00  0.00000000E+00
  0.00000000E+00  0.00000000E+00  0.00000000E+00
  0.00000000E+00  0.00000000E+00  0.00000000E+00
  0.00000000E+00  0.00000000E+00  0.00000000E+00
  0.00000000E+00  0.00000000E+00  0.00000000E+00
  0.00000000E+00  0.00000000E+00  0.00000000E+00
  0.00000000E+00  0.00000000E+00  0.00000000E+00
  0.00000000E+00  0.00000000E+00  0.00000000E+00
  0.00000000E+00  0.00000000E+00  0.00000000E+00
  0.00000000E+00  0.00000000E+00  0.00000000E+00
  0.00000000E+00  0.00000000E+00  0.00000000E+00
  0.00000000E+00  0.00000000E+00  0.00000000E+00
  0.00000000E+00  0.00000000E+00  0.00000000E+00
  0.00000000E+00  0.00000000E+00  0.00000000E+00
  0.00000000E+00  0.00000000E+00  0.00000000E+00
  0.00000000E+00  0.00000000E+00  0.00000000E+00
  0.00000000E+00  0.00000000E+00  0.00000000E+00
  0.00000000E+00  0.00000000E+00  0.00000000E+00
