C    F    N    H    O                   
    1.000000000000000     
    17.2710380553999983    0.0000000000000000    0.0000000000000000
    -8.6355190276999991   14.9571577057000002    0.0000000000000000
     0.0000000000000000    0.0000000000000000   15.0000000000000000
   C    F    N    H    O 
    82     2     6     2     1
Selective dynamics
Direct
  0.9987542904054367  0.0015362180358851  0.4962502818742728   T   T   T
  0.9989909671294188  0.1445931042305195  0.4962266870862604   T   T   T
  0.9998802860918885  0.2882809250773303  0.4963357734533195   T   T   T
  0.0004783981800912  0.4313929494496941  0.4958149043930136   T   T   T
  0.0009152852247096  0.5741895012412136  0.4952025096891469   T   T   T
  0.0012243128018183  0.7171170308207723  0.4954351753321379   T   T   T
  0.9997144193623263  0.8596147381426219  0.4959915427420363   T   T   T
  0.1430212343447367  0.0031314401156949  0.4970729776501911   T   T   T
  0.1425650757554278  0.1453439333342636  0.4966741443263163   T   T   T
  0.1420618996591341  0.2872084685869537  0.4964592981844217   T   T   T
  0.1438383862316388  0.4314197011467104  0.4961655496289897   T   T   T
  0.1448473449359367  0.5741683512509438  0.4956864429172161   T   T   T
  0.1442529972077345  0.7171068367394977  0.4956224391135152   T   T   T
  0.1433929800766385  0.8602333859571892  0.4965086109565164   T   T   T
  0.2861527911103830  0.0034850446608638  0.4967436708920405   T   T   T
  0.2864932324456615  0.1468703715550456  0.4966448670805992   T   T   T
  0.2871953848049743  0.2920402121156459  0.4953413347107995   T   T   T
  0.2849956548462839  0.4263306705184832  0.4952767910910953   T   T   T
  0.2901565383597591  0.5743578404256648  0.4949115633972883   T   T   T
  0.2876038398088554  0.7177763197405546  0.4952701118993840   T   T   T
  0.2864132539323709  0.8606461724860206  0.4959751258828496   T   T   T
  0.4291458353124944  0.0039702802235192  0.4960451568407396   T   T   T
  0.4291496213372432  0.1478177410452917  0.4958226522498473   T   T   T
  0.4294068935277792  0.8603294691583609  0.4952585427567734   T   T   T
  0.5713616433198894  0.0034102822471428  0.4956163132379624   T   T   T
  0.5713645725473497  0.1469435436023376  0.4955313526268220   T   T   T
  0.5735897311404182  0.2938485303387886  0.4938341232532592   T   T   T
  0.5733778048709022  0.8589680739605073  0.4943209820163598   T   T   T
  0.7135167674018591  0.0024592379660083  0.4950835542302038   T   T   T
  0.7141096752053141  0.1461522311763591  0.4957051124103217   T   T   T
  0.7138581016576585  0.2893229810663359  0.4948344898000791   T   T   T
  0.7102220941191382  0.4293893640635983  0.4928187619275148   T   T   T
  0.7085095397257593  0.8578573977590762  0.4928016749898969   T   T   T
  0.8556390510058055  0.0014045798143856  0.4950920159015584   T   T   T
  0.8565164159279759  0.1452819547339325  0.4958313018870943   T   T   T
  0.8568663879620660  0.2885484985939409  0.4955992432707967   T   T   T
  0.8570520715507655  0.4315217687318145  0.4946630030202374   T   T   T
  0.8573534628321788  0.5740438509300272  0.4937988928270529   T   T   T
  0.8581354835127518  0.7163790960237016  0.4933826756203272   T   T   T
  0.8544529826161051  0.8574826241695420  0.4942312751070189   T   T   T
  0.0469076734811478  0.0971564983496841  0.4964766744404664   T   T   T
  0.0465930929979649  0.2397465032482478  0.4965108536562935   T   T   T
  0.0480593209761024  0.3837924860525358  0.4962518568115846   T   T   T
  0.0490398997644415  0.5267142362368583  0.4956440167019809   T   T   T
  0.0487933678499182  0.6695518653625326  0.4954624722768375   T   T   T
  0.0479307411750783  0.8123370921834432  0.4961012108750136   T   T   T
  0.0473151787209449  0.9547754594190491  0.4965867882064612   T   T   T
  0.1907451193038215  0.0983051352201101  0.4970177930111623   T   T   T
  0.1905877382607812  0.2406281944930574  0.4962766554644218   T   T   T
  0.1896307246735562  0.3821021366749581  0.4961603565266265   T   T   T
  0.1932586285180889  0.5269356589357724  0.4957487639548610   T   T   T
  0.1921556974999055  0.6697156720190176  0.4955182884477981   T   T   T
  0.1913174255927182  0.8126892366621837  0.4960622741631756   T   T   T
  0.1909609999490474  0.9555881000074692  0.4969328256042158   T   T   T
  0.3339346483709553  0.0992798875390347  0.4965411454275039   T   T   T
  0.3376185435754575  0.2428840736895198  0.4950865995130023   T   T   T
  0.3392853312170224  0.6733028217763796  0.4948155521555296   T   T   T
  0.3343333724502449  0.8128808476957423  0.4953663982236487   T   T   T
  0.3337302738769842  0.9559248597161316  0.4962938709744901   T   T   T
  0.4764535396698659  0.0994442842870406  0.4958982732224728   T   T   T
  0.4740694889021010  0.2440303112826850  0.4943126278340647   T   T   T
  0.4744699047784184  0.8095258006947724  0.4947152362086158   T   T   T
  0.4765149600047693  0.9559609158406579  0.4956316346261954   T   T   T
  0.6187241974580299  0.0988015510193151  0.4957215609435341   T   T   T
  0.6186517728442343  0.2426809579579834  0.4948448460543606   T   T   T
  0.6184601678851600  0.9548482973884539  0.4950797967547659   T   T   T
  0.7614207776043475  0.0981609483481586  0.4956698277446073   T   T   T
  0.7616710079225236  0.2412958846442155  0.4953943397582974   T   T   T
  0.7612554308343547  0.3843803131763310  0.4941531361141074   T   T   T
  0.7607517892567678  0.5290341762220041  0.4917614244530234   T   T   T
  0.7627896186670570  0.6650387709684729  0.4898723181214761   T   T   T
  0.7575525056235531  0.8079778556217773  0.4915959299701462   T   T   T
  0.7601907045161332  0.9540187499250645  0.4943546895659345   T   T   T
  0.9035408628314980  0.0967299053963669  0.4957778690194715   T   T   T
  0.9044203107793071  0.2407373856890192  0.4959949838674415   T   T   T
  0.9047630451167686  0.3840396834497753  0.4953655317320231   T   T   T
  0.9052958344748541  0.5267508763968100  0.4946364621416244   T   T   T
  0.9057384268241319  0.6691043407934779  0.4943312345130024   T   T   T
  0.9039640474305718  0.8114653099332041  0.4946164443416675   T   T   T
  0.9029249993386717  0.9531602107785851  0.4953966602748165   T   T   T
  0.7153070168512314  0.7138780897036388  0.4873927085866435   T   T   T
  0.3322662841288352  0.5224512304418818  0.4942520621416228   T   T   T
  0.6271400479758823  0.6654193317130149  0.4803013693793080   T   T   T
  0.4209112625927864  0.5621606713542332  0.4923667124274924   T   T   T
  0.4275986338926739  0.2878670185157655  0.4930906716513524   T   T   T
  0.4291751591970088  0.7193840934783812  0.4944663147793881   T   T   T
  0.7168365978347224  0.5742851364354001  0.4885973327663554   T   T   T
  0.3311592796670519  0.3814963718675706  0.4947801348707214   T   T   T
  0.6201024404736303  0.3843217087751484  0.4926704186664914   T   T   T
  0.6186116230445657  0.8140784729415200  0.4930361631289095   T   T   T
  0.4621023765379674  0.4426177908910586  0.5162282431349687   T   T   T
  0.5587037767824306  0.4592956934649223  0.5143930162405161   T   T   T
  0.5231549827486983  0.4855844256144159  0.5348879690000032   T   T   F
 
  0.00000000E+00  0.00000000E+00  0.00000000E+00
  0.00000000E+00  0.00000000E+00  0.00000000E+00
  0.00000000E+00  0.00000000E+00  0.00000000E+00
  0.00000000E+00  0.00000000E+00  0.00000000E+00
  0.00000000E+00  0.00000000E+00  0.00000000E+00
  0.00000000E+00  0.00000000E+00  0.00000000E+00
  0.00000000E+00  0.00000000E+00  0.00000000E+00
  0.00000000E+00  0.00000000E+00  0.00000000E+00
  0.00000000E+00  0.00000000E+00  0.00000000E+00
  0.00000000E+00  0.00000000E+00  0.00000000E+00
  0.00000000E+00  0.00000000E+00  0.00000000E+00
  0.00000000E+00  0.00000000E+00  0.00000000E+00
  0.00000000E+00  0.00000000E+00  0.00000000E+00
  0.00000000E+00  0.00000000E+00  0.00000000E+00
  0.00000000E+00  0.00000000E+00  0.00000000E+00
  0.00000000E+00  0.00000000E+00  0.00000000E+00
  0.00000000E+00  0.00000000E+00  0.00000000E+00
  0.00000000E+00  0.00000000E+00  0.00000000E+00
  0.00000000E+00  0.00000000E+00  0.00000000E+00
  0.00000000E+00  0.00000000E+00  0.00000000E+00
  0.00000000E+00  0.00000000E+00  0.00000000E+00
  0.00000000E+00  0.00000000E+00  0.00000000E+00
  0.00000000E+00  0.00000000E+00  0.00000000E+00
  0.00000000E+00  0.00000000E+00  0.00000000E+00
  0.00000000E+00  0.00000000E+00  0.00000000E+00
  0.00000000E+00  0.00000000E+00  0.00000000E+00
  0.00000000E+00  0.00000000E+00  0.00000000E+00
  0.00000000E+00  0.00000000E+00  0.00000000E+00
  0.00000000E+00  0.00000000E+00  0.00000000E+00
  0.00000000E+00  0.00000000E+00  0.00000000E+00
  0.00000000E+00  0.00000000E+00  0.00000000E+00
  0.00000000E+00  0.00000000E+00  0.00000000E+00
  0.00000000E+00  0.00000000E+00  0.00000000E+00
  0.00000000E+00  0.00000000E+00  0.00000000E+00
  0.00000000E+00  0.00000000E+00  0.00000000E+00
  0.00000000E+00  0.00000000E+00  0.00000000E+00
  0.00000000E+00  0.00000000E+00  0.00000000E+00
  0.00000000E+00  0.00000000E+00  0.00000000E+00
  0.00000000E+00  0.00000000E+00  0.00000000E+00
  0.00000000E+00  0.00000000E+00  0.00000000E+00
  0.00000000E+00  0.00000000E+00  0.00000000E+00
  0.00000000E+00  0.00000000E+00  0.00000000E+00
  0.00000000E+00  0.00000000E+00  0.00000000E+00
  0.00000000E+00  0.00000000E+00  0.00000000E+00
  0.00000000E+00  0.00000000E+00  0.00000000E+00
  0.00000000E+00  0.00000000E+00  0.00000000E+00
  0.00000000E+00  0.00000000E+00  0.00000000E+00
  0.00000000E+00  0.00000000E+00  0.00000000E+00
  0.00000000E+00  0.00000000E+00  0.00000000E+00
  0.00000000E+00  0.00000000E+00  0.00000000E+00
  0.00000000E+00  0.00000000E+00  0.00000000E+00
  0.00000000E+00  0.00000000E+00  0.00000000E+00
  0.00000000E+00  0.00000000E+00  0.00000000E+00
  0.00000000E+00  0.00000000E+00  0.00000000E+00
  0.00000000E+00  0.00000000E+00  0.00000000E+00
  0.00000000E+00  0.00000000E+00  0.00000000E+00
  0.00000000E+00  0.00000000E+00  0.00000000E+00
  0.00000000E+00  0.00000000E+00  0.00000000E+00
  0.00000000E+00  0.00000000E+00  0.00000000E+00
  0.00000000E+00  0.00000000E+00  0.00000000E+00
  0.00000000E+00  0.00000000E+00  0.00000000E+00
  0.00000000E+00  0.00000000E+00  0.00000000E+00
  0.00000000E+00  0.00000000E+00  0.00000000E+00
  0.00000000E+00  0.00000000E+00  0.00000000E+00
  0.00000000E+00  0.00000000E+00  0.00000000E+00
  0.00000000E+00  0.00000000E+00  0.00000000E+00
  0.00000000E+00  0.00000000E+00  0.00000000E+00
  0.00000000E+00  0.00000000E+00  0.00000000E+00
  0.00000000E+00  0.00000000E+00  0.00000000E+00
  0.00000000E+00  0.00000000E+00  0.00000000E+00
  0.00000000E+00  0.00000000E+00  0.00000000E+00
  0.00000000E+00  0.00000000E+00  0.00000000E+00
  0.00000000E+00  0.00000000E+00  0.00000000E+00
  0.00000000E+00  0.00000000E+00  0.00000000E+00
  0.00000000E+00  0.00000000E+00  0.00000000E+00
  0.00000000E+00  0.00000000E+00  0.00000000E+00
  0.00000000E+00  0.00000000E+00  0.00000000E+00
  0.00000000E+00  0.00000000E+00  0.00000000E+00
  0.00000000E+00  0.00000000E+00  0.00000000E+00
  0.00000000E+00  0.00000000E+00  0.00000000E+00
  0.00000000E+00  0.00000000E+00  0.00000000E+00
  0.00000000E+00  0.00000000E+00  0.00000000E+00
  0.00000000E+00  0.00000000E+00  0.00000000E+00
  0.00000000E+00  0.00000000E+00  0.00000000E+00
  0.00000000E+00  0.00000000E+00  0.00000000E+00
  0.00000000E+00  0.00000000E+00  0.00000000E+00
  0.00000000E+00  0.00000000E+00  0.00000000E+00
  0.00000000E+00  0.00000000E+00  0.00000000E+00
  0.00000000E+00  0.00000000E+00  0.00000000E+00
  0.00000000E+00  0.00000000E+00  0.00000000E+00
  0.00000000E+00  0.00000000E+00  0.00000000E+00
  0.00000000E+00  0.00000000E+00  0.00000000E+00
  0.00000000E+00  0.00000000E+00  0.00000000E+00
