C    F    N    H    O                   
    1.000000000000000     
    17.2710380553999983    0.0000000000000000    0.0000000000000000
    -8.6355190276999991   14.9571577057000002    0.0000000000000000
     0.0000000000000000    0.0000000000000000   15.0000000000000000
   C    F    N    H    O 
    82     2     6     2     1
Selective dynamics
Direct
  0.9987913429126555  0.0015587951199698  0.4962206044523093   T   T   T
  0.9990240681329122  0.1446058962654468  0.4962601593884497   T   T   T
  0.9999063835119339  0.2882890948301255  0.4963742789161513   T   T   T
  0.0004869797536460  0.4313962608749747  0.4958191581626819   T   T   T
  0.0009270838047522  0.5741941863900849  0.4952300085647019   T   T   T
  0.0012461353367849  0.7171248812072971  0.4954244890421962   T   T   T
  0.9997404766615022  0.8596301899328066  0.4959375946812655   T   T   T
  0.1430567028335791  0.0031650172359081  0.4969257858212753   T   T   T
  0.1426236119624767  0.1453853725015322  0.4966665198704701   T   T   T
  0.1421015167839874  0.2872314604879482  0.4965846988480730   T   T   T
  0.1438537794228621  0.4314369242328843  0.4962000148698986   T   T   T
  0.1448529409561148  0.5741742206414927  0.4956390690564123   T   T   T
  0.1442663406022965  0.7171163764258117  0.4955607246298526   T   T   T
  0.1434000103125649  0.8602448022419216  0.4963711335144034   T   T   T
  0.2861521046418952  0.0034786782787569  0.4965203531090715   T   T   T
  0.2865410479733750  0.1469048142393597  0.4966714945958070   T   T   T
  0.2872780658762743  0.2921136403664738  0.4957169105277419   T   T   T
  0.2850158521225418  0.4263720966454901  0.4955248470330406   T   T   T
  0.2901646842300403  0.5743797375394915  0.4948222817241043   T   T   T
  0.2876183881494536  0.7177776908435475  0.4951173423761294   T   T   T
  0.2864183562423566  0.8606432296472359  0.4957592050305025   T   T   T
  0.4291539422410371  0.0039581496399688  0.4957877272333092   T   T   T
  0.4291631195656003  0.1477928926402033  0.4957729751297462   T   T   T
  0.4294233795360994  0.8603224325526324  0.4950594715117954   T   T   T
  0.5713811502956453  0.0033965059740144  0.4954878789041744   T   T   T
  0.5713862633498175  0.1469276959455175  0.4953899940274878   T   T   T
  0.5736033474393425  0.2938198586110927  0.4940446414249161   T   T   T
  0.5733990007260777  0.8589530569289232  0.4941563974088665   T   T   T
  0.7135393414994766  0.0024522022391413  0.4950420104493863   T   T   T
  0.7141313047314448  0.1461456682308832  0.4956666029200395   T   T   T
  0.7138777724409504  0.2893220700095401  0.4948068441838906   T   T   T
  0.7102081868117553  0.4293940789443726  0.4929344380782588   T   T   T
  0.7085284134774719  0.8578415671693451  0.4926363696059438   T   T   T
  0.8556646288809838  0.0014109446325274  0.4950796158471246   T   T   T
  0.8565394463735065  0.1452817153453375  0.4958457051661046   T   T   T
  0.8568855112014050  0.2885483966055670  0.4955892494424558   T   T   T
  0.8570584403390610  0.4315289913802274  0.4946748901760241   T   T   T
  0.8573666621417193  0.5740455322354908  0.4938266576170315   T   T   T
  0.8581781048324163  0.7163924800993258  0.4933158899010571   T   T   T
  0.8544784652764789  0.8574907821145196  0.4941402684650518   T   T   T
  0.0469603594477661  0.0971867837053110  0.4964591274583151   T   T   T
  0.0466345208584976  0.2397641392146205  0.4965889214733710   T   T   T
  0.0480758590241629  0.3838017911774955  0.4962702117037359   T   T   T
  0.0490494303717689  0.5267182226205376  0.4956382115572560   T   T   T
  0.0488115219607921  0.6695592516335463  0.4954600295620044   T   T   T
  0.0479434366482452  0.8123516089979388  0.4960340530557850   T   T   T
  0.0473521682620920  0.9548038432475855  0.4965151039592395   T   T   T
  0.1907953289340379  0.0983450978553317  0.4969472318912563   T   T   T
  0.1906616478878309  0.2406810887001079  0.4963862202061730   T   T   T
  0.1896536801726701  0.3821267389165262  0.4962965789809924   T   T   T
  0.1932742442702269  0.5269514993268025  0.4957165129921166   T   T   T
  0.1921712839271177  0.6697239068903297  0.4954325573038372   T   T   T
  0.1913276073060735  0.8127013033707630  0.4959169723256425   T   T   T
  0.1909735638381790  0.9555987626201822  0.4967320696619716   T   T   T
  0.3339549778002097  0.0992783403454367  0.4964491252577640   T   T   T
  0.3376761802979005  0.2429331036476487  0.4954719160157400   T   T   T
  0.3393056797672710  0.6733153739082290  0.4946372393641338   T   T   T
  0.3343462669547520  0.8128836068785430  0.4951783168241739   T   T   T
  0.3337400656561309  0.9559240392434453  0.4960336858538097   T   T   T
  0.4764707819797759  0.0994259216947595  0.4956888280585842   T   T   T
  0.4740897470734227  0.2440046462657338  0.4946165673595093   T   T   T
  0.4744916315312153  0.8095194568777470  0.4945098641294502   T   T   T
  0.4765330026272624  0.9559577669456878  0.4954395414491737   T   T   T
  0.6187342278992569  0.0987868363915017  0.4956282457364465   T   T   T
  0.6186692562191088  0.2426601127740972  0.4948049096372590   T   T   T
  0.6184736512824914  0.9548351931324232  0.4949738269884939   T   T   T
  0.7614382532574249  0.0981565082572418  0.4956585778883036   T   T   T
  0.7616838469906893  0.2412915087905888  0.4953662861570123   T   T   T
  0.7612493593492489  0.3843803367471635  0.4941662702554162   T   T   T
  0.7607598760928890  0.5290416651360433  0.4917328958505335   T   T   T
  0.7628508391902884  0.6650514435925200  0.4896182334696397   T   T   T
  0.7575797890139799  0.8079667763502254  0.4913668656066857   T   T   T
  0.7602074386867819  0.9540100175866172  0.4943004467182614   T   T   T
  0.9035745799705218  0.0967388155865732  0.4958009996096949   T   T   T
  0.9044429201749713  0.2407427004968293  0.4960014167681749   T   T   T
  0.9047682612748914  0.3840400552315296  0.4953668560620441   T   T   T
  0.9053061791269627  0.5267531128322509  0.4946868653065086   T   T   T
  0.9057630616267834  0.6691086506284628  0.4943297039056951   T   T   T
  0.9039970011922197  0.8114838149234355  0.4945694937370888   T   T   T
  0.9029591852636683  0.9531728990316216  0.4953677415134495   T   T   T
  0.7153654978635127  0.7138745836333062  0.4869536136103110   T   T   T
  0.3322778127704718  0.5224778115660511  0.4942407724621627   T   T   T
  0.6272634455286317  0.6654018605114851  0.4794863396685080   T   T   T
  0.4209305552504015  0.5621589234172267  0.4921410676820305   T   T   T
  0.4276687202670209  0.2878944135120123  0.4937568748543376   T   T   T
  0.4291910704034590  0.7193787185512073  0.4942508168890699   T   T   T
  0.7168859135795367  0.5743109871403260  0.4883208882981813   T   T   T
  0.3312329364201415  0.3815870602814721  0.4953521364989010   T   T   T
  0.6200747430683851  0.3842922229573264  0.4930516861661600   T   T   T
  0.6186288082944355  0.8140610839188426  0.4928437143005985   T   T   T
  0.4620727509248364  0.4442892412221481  0.5184467911929114   T   T   T
  0.5573496518338074  0.4574718181002858  0.5156340249405655   T   T   T
  0.5240247475258385  0.4865680088740673  0.5348879690000032   T   T   F
 
  0.00000000E+00  0.00000000E+00  0.00000000E+00
  0.00000000E+00  0.00000000E+00  0.00000000E+00
  0.00000000E+00  0.00000000E+00  0.00000000E+00
  0.00000000E+00  0.00000000E+00  0.00000000E+00
  0.00000000E+00  0.00000000E+00  0.00000000E+00
  0.00000000E+00  0.00000000E+00  0.00000000E+00
  0.00000000E+00  0.00000000E+00  0.00000000E+00
  0.00000000E+00  0.00000000E+00  0.00000000E+00
  0.00000000E+00  0.00000000E+00  0.00000000E+00
  0.00000000E+00  0.00000000E+00  0.00000000E+00
  0.00000000E+00  0.00000000E+00  0.00000000E+00
  0.00000000E+00  0.00000000E+00  0.00000000E+00
  0.00000000E+00  0.00000000E+00  0.00000000E+00
  0.00000000E+00  0.00000000E+00  0.00000000E+00
  0.00000000E+00  0.00000000E+00  0.00000000E+00
  0.00000000E+00  0.00000000E+00  0.00000000E+00
  0.00000000E+00  0.00000000E+00  0.00000000E+00
  0.00000000E+00  0.00000000E+00  0.00000000E+00
  0.00000000E+00  0.00000000E+00  0.00000000E+00
  0.00000000E+00  0.00000000E+00  0.00000000E+00
  0.00000000E+00  0.00000000E+00  0.00000000E+00
  0.00000000E+00  0.00000000E+00  0.00000000E+00
  0.00000000E+00  0.00000000E+00  0.00000000E+00
  0.00000000E+00  0.00000000E+00  0.00000000E+00
  0.00000000E+00  0.00000000E+00  0.00000000E+00
  0.00000000E+00  0.00000000E+00  0.00000000E+00
  0.00000000E+00  0.00000000E+00  0.00000000E+00
  0.00000000E+00  0.00000000E+00  0.00000000E+00
  0.00000000E+00  0.00000000E+00  0.00000000E+00
  0.00000000E+00  0.00000000E+00  0.00000000E+00
  0.00000000E+00  0.00000000E+00  0.00000000E+00
  0.00000000E+00  0.00000000E+00  0.00000000E+00
  0.00000000E+00  0.00000000E+00  0.00000000E+00
  0.00000000E+00  0.00000000E+00  0.00000000E+00
  0.00000000E+00  0.00000000E+00  0.00000000E+00
  0.00000000E+00  0.00000000E+00  0.00000000E+00
  0.00000000E+00  0.00000000E+00  0.00000000E+00
  0.00000000E+00  0.00000000E+00  0.00000000E+00
  0.00000000E+00  0.00000000E+00  0.00000000E+00
  0.00000000E+00  0.00000000E+00  0.00000000E+00
  0.00000000E+00  0.00000000E+00  0.00000000E+00
  0.00000000E+00  0.00000000E+00  0.00000000E+00
  0.00000000E+00  0.00000000E+00  0.00000000E+00
  0.00000000E+00  0.00000000E+00  0.00000000E+00
  0.00000000E+00  0.00000000E+00  0.00000000E+00
  0.00000000E+00  0.00000000E+00  0.00000000E+00
  0.00000000E+00  0.00000000E+00  0.00000000E+00
  0.00000000E+00  0.00000000E+00  0.00000000E+00
  0.00000000E+00  0.00000000E+00  0.00000000E+00
  0.00000000E+00  0.00000000E+00  0.00000000E+00
  0.00000000E+00  0.00000000E+00  0.00000000E+00
  0.00000000E+00  0.00000000E+00  0.00000000E+00
  0.00000000E+00  0.00000000E+00  0.00000000E+00
  0.00000000E+00  0.00000000E+00  0.00000000E+00
  0.00000000E+00  0.00000000E+00  0.00000000E+00
  0.00000000E+00  0.00000000E+00  0.00000000E+00
  0.00000000E+00  0.00000000E+00  0.00000000E+00
  0.00000000E+00  0.00000000E+00  0.00000000E+00
  0.00000000E+00  0.00000000E+00  0.00000000E+00
  0.00000000E+00  0.00000000E+00  0.00000000E+00
  0.00000000E+00  0.00000000E+00  0.00000000E+00
  0.00000000E+00  0.00000000E+00  0.00000000E+00
  0.00000000E+00  0.00000000E+00  0.00000000E+00
  0.00000000E+00  0.00000000E+00  0.00000000E+00
  0.00000000E+00  0.00000000E+00  0.00000000E+00
  0.00000000E+00  0.00000000E+00  0.00000000E+00
  0.00000000E+00  0.00000000E+00  0.00000000E+00
  0.00000000E+00  0.00000000E+00  0.00000000E+00
  0.00000000E+00  0.00000000E+00  0.00000000E+00
  0.00000000E+00  0.00000000E+00  0.00000000E+00
  0.00000000E+00  0.00000000E+00  0.00000000E+00
  0.00000000E+00  0.00000000E+00  0.00000000E+00
  0.00000000E+00  0.00000000E+00  0.00000000E+00
  0.00000000E+00  0.00000000E+00  0.00000000E+00
  0.00000000E+00  0.00000000E+00  0.00000000E+00
  0.00000000E+00  0.00000000E+00  0.00000000E+00
  0.00000000E+00  0.00000000E+00  0.00000000E+00
  0.00000000E+00  0.00000000E+00  0.00000000E+00
  0.00000000E+00  0.00000000E+00  0.00000000E+00
  0.00000000E+00  0.00000000E+00  0.00000000E+00
  0.00000000E+00  0.00000000E+00  0.00000000E+00
  0.00000000E+00  0.00000000E+00  0.00000000E+00
  0.00000000E+00  0.00000000E+00  0.00000000E+00
  0.00000000E+00  0.00000000E+00  0.00000000E+00
  0.00000000E+00  0.00000000E+00  0.00000000E+00
  0.00000000E+00  0.00000000E+00  0.00000000E+00
  0.00000000E+00  0.00000000E+00  0.00000000E+00
  0.00000000E+00  0.00000000E+00  0.00000000E+00
  0.00000000E+00  0.00000000E+00  0.00000000E+00
  0.00000000E+00  0.00000000E+00  0.00000000E+00
  0.00000000E+00  0.00000000E+00  0.00000000E+00
  0.00000000E+00  0.00000000E+00  0.00000000E+00
  0.00000000E+00  0.00000000E+00  0.00000000E+00
