C    N    H    O 
    1.000000000000000     
  17.2710380553999983   0.0000000000000000   0.0000000000000000
  -8.6355190276999991  14.9571577057000002   0.0000000000000000
   0.0000000000000000   0.0000000000000000  15.0000000000000000
C    N    H    O 
80  8  2  1  
Selective dynamics
Direct
  0.9999854206657880  0.0002578260962774  0.4991274979708774 T T T
  0.9993994101186712  0.1427219779181120  0.4999556345084740 T T T
  0.9991079836679850  0.2856090368082541  0.5006499495940467 T T T
  0.9993094729713026  0.4287880181653478  0.5003751471795145 T T T
  0.9999663966767610  0.5718464548071363  0.4997682055646154 T T T
  0.0014873833276541  0.7152417228213207  0.4992846661139916 T T T
  0.0014495930724354  0.8583656680950990  0.4989986087393159 T T T
  0.1443823614314514  0.0019480255939532  0.4993716698560733 T T T
  0.1438609164744110  0.1446586714631823  0.4996658123706674 T T T
  0.1423273606821735  0.2858780375189685  0.5011838653312424 T T T
  0.1423151650432445  0.4285406475253570  0.5023598619316780 T T T
  0.1438497242760561  0.5712962755292775  0.5021449808921905 T T T
  0.1443806387641345  0.7145245194102989  0.5009156713604075 T T T
  0.1443673556780903  0.8582260713756295  0.4998494574508038 T T T
  0.2868867365036728  0.0014884287896566  0.5003499634563537 T T T
  0.2876506381860974  0.1463116857142267  0.5003745329752625 T T T
  0.2886885282048933  0.2937552876472938  0.5027417655995730 T T T
  0.2851539265167164  0.4286033357992731  0.5048087436885766 T T T
  0.2887694581304778  0.5670825523570125  0.5047209244125400 T T T
  0.2876032634211127  0.7134679359054001  0.5033444102517943 T T T
  0.2868870141530024  0.8575727531362924  0.5015878443720950 T T T
  0.4293906355251376  0.0008230371345133  0.5014615153330744 T T T
  0.4294761933290920  0.1457017543377252  0.5002782236691952 T T T
  0.4294706258985153  0.8560675455211095  0.5030385408987180 T T T
  0.5713393429305141  0.9995694863599016  0.5019410958959331 T T T
  0.5713033063359616  0.1440433518466760  0.5006671072737020 T T T
  0.5736051938947390  0.2917683406589971  0.4997843414675769 T T T
  0.5736041828544997  0.8541524931924146  0.5033445720418754 T T T
  0.7134245769534018  0.9984293960304240  0.5018662672866772 T T T
  0.7137414103633626  0.1430017038413236  0.5006611091105556 T T T
  0.7134108512261158  0.2872556306733769  0.4997820510623329 T T T
  0.7090622146727954  0.4282983109873083  0.5002812045652480 T T T
  0.7090179587774701  0.8531083116538549  0.5028752558519450 T T T
  0.8560154530634102  0.9988156482869512  0.5008455077391705 T T T
  0.8561604053071716  0.1423869087574203  0.5006616996773611 T T T
  0.8561389266919499  0.2859481460605289  0.4998048338152942 T T T
  0.8559687272288886  0.4294218285695997  0.4994510510259327 T T T
  0.8563231418170818  0.5726785904144217  0.4995737184052486 T T T
  0.8586946167589536  0.7155015693886768  0.4998876980299689 T T T
  0.8562997792771855  0.8559204863762432  0.5004382814235510 T T T
  0.0480385169883419  0.0959595781533048  0.4994302063881595 T T T
  0.0466434278999011  0.2378215109093640  0.5004861528051410 T T T
  0.0466003536443036  0.3809218318499719  0.5010929715944840 T T T
  0.0479999164812233  0.5241996294924135  0.5006762358701083 T T T
  0.0487163257751665  0.6672903858593560  0.4998907988131623 T T T
  0.0490088808194861  0.8105673368611384  0.4992826194152781 T T T
  0.0486926265878966  0.9535097917482024  0.4989977941695078 T T T
  0.1919363906222512  0.0973509833309026  0.4997238776106291 T T T
  0.1916397720025305  0.2402304050044981  0.5007549238050512 T T T
  0.1893040775143936  0.3807070033437419  0.5025948391105595 T T T
  0.1916567644280551  0.5235150341725944  0.5032334095263588 T T T
  0.1919506942795826  0.6667050155682617  0.5022111663723527 T T T
  0.1918329287227280  0.8101777845107164  0.5007610664752298 T T T
  0.1918429649367444  0.9537646419624756  0.4998172562587929 T T T
  0.3344359127003771  0.0976636861441569  0.5002841073797248 T T T
  0.3389206830001573  0.2430735943252746  0.5014540663520719 T T T
  0.3389458051904652  0.6680490030965229  0.5045099422164181 T T T
  0.3344380229858279  0.8089469915401983  0.5028107830145573 T T T
  0.3340721140872760  0.9531337824535429  0.5011515856507106 T T T
  0.4764577577036079  0.0966078192689611  0.5007706389739394 T T T
  0.4743329305559358  0.2421246036178781  0.5001347740676059 T T T
  0.4743208435232491  0.8045290242504364  0.5038690272679319 T T T
  0.4764773979230322  0.9521321676669922  0.5022097071779025 T T T
  0.6183600116582559  0.0953232611542869  0.5010902224697908 T T T
  0.6183338317870238  0.2401361181673095  0.5000265983494006 T T T
  0.6183477886418157  0.9505069586614808  0.5023838129518330 T T T
  0.7610272173742885  0.0946680421805958  0.5011148584029230 T T T
  0.7610022133265006  0.2385578879124478  0.4998951825356395 T T T
  0.7602675092340826  0.3827361920864412  0.4997490150253359 T T T
  0.7592778923266182  0.5292269314927629  0.5009820961397152 T T T
  0.7627413944206084  0.6675300615976869  0.5022112591934980 T T T
  0.7592300859188857  0.8023467529371748  0.5024402435163603 T T T
  0.7603144860758558  0.9498426074562840  0.5019377741348927 T T T
  0.9036952898940316  0.0942112972145676  0.5004366032597859 T T T
  0.9036884499308052  0.2379341482647604  0.5002850440194644 T T T
  0.9036120833966864  0.3816529212284952  0.4995835954936846 T T T
  0.9040697877602236  0.5248137300132101  0.4993809775440931 T T T
  0.9057378364337512  0.6676699625981277  0.4993525357481540 T T T
  0.9057224157149144  0.8103596104312552  0.4995121196331822 T T T
  0.9041040018987504  0.9515062559614440  0.5000212295714921 T T T
  0.4287606839655979  0.2870163919414575  0.5009844890676575 T T T
  0.4287570678542611  0.7140709126866153  0.5047590818187678 T T T
  0.7159958886907436  0.5756071077992005  0.5032825382559993 T T T
  0.7159965823553883  0.7126588348472286  0.5039210126396312 T T T
  0.3318773555438450  0.3834252137345607  0.5057677046648711 T T T
  0.3320071207873504  0.5205659435961189  0.5059664656123999 T T T
  0.6191847923608267  0.3822747834316264  0.4998452883326717 T T T
  0.6192118180541814  0.8092990858394312  0.5036921341341164 T T T
  0.5255963869396520  0.4790260145357825  0.4374259806803223 T T T
  0.5106606292380832  0.5590230042170692  0.4337736263222232 T T T
  0.5202689793136412  0.5191291762518059  0.3953361829999977 T T F
