C4                                      
    1.000000000000000     
    17.2710380553999983    0.0000000000000000    0.0000000000000000
    -8.6355190276999991   14.9571577057000002    0.0000000000000000
     0.0000000000000000    0.0000000000000000   15.0000000000000000
   C    F    N 
    82     2     6
Direct
 -0.0002187904366651 -0.0004477019687153  0.2499986762097421
 -0.0006311660346522  0.1422929834253405  0.2499993198711878
 -0.0012536513020117  0.2849638892450670  0.2500006112386617
 -0.0010709616714849  0.4281729490850543  0.2499991263914768
 -0.0000933403225360  0.5713158572939520  0.2500005691395196
  0.0015037845920994  0.7146043263742489  0.2500003692495307
  0.0006510173755941  0.8574312938021943  0.2499981412174535
  0.1439012216940155  0.0009396405421763  0.2499989407703956
  0.1434380968826862  0.1436503037588668  0.2499988500380067
  0.1415066555533758  0.2845392506028955  0.2499984277664016
  0.1408911696210375  0.4268294444971849  0.2499982365922633
  0.1430875484890699  0.5704179577673724  0.2499984907485306
  0.1442234899418898  0.7139241841297430  0.2500012745968777
  0.1440661805261677  0.8574593367330019  0.2499999541352153
  0.2865157228901043  0.0006217753737116  0.2499996127222998
  0.2870721708102827  0.1452346229622480  0.2499997773963797
  0.2878947565284744  0.2924828693758623  0.2499980276952607
  0.2834195953789270  0.4265710284742473  0.2500000256349277
  0.2857341645523797  0.5642573907862197  0.2499993212600621
  0.2870744598310383  0.7122445238356986  0.2499981325258470
  0.2869619573838673  0.8567628337446026  0.2499997581348684
  0.4291546575250290  0.0006789699711730  0.2499988538025871
  0.4291437650175313  0.1452496061450144  0.2499982907606660
  0.4299513146787662  0.8564258993529920  0.2499998005883950
  0.5715635444737596  0.0007565144099947  0.2499997546371471
  0.5711037868299665  0.1442239036450961  0.2500026067821545
  0.5732933509043203  0.2914737074290804  0.2499999687685210
  0.5757198995051503  0.8581292398869557  0.2500009667039954
  0.7146115097590646  0.0007682410001821  0.2499993737493399
  0.7138714710862271  0.1435749402033892  0.2499993200861469
  0.7132230279937553  0.2868043778097235  0.2499990271599375
  0.7091492992863223  0.4268811993529119  0.2500005226693078
  0.7107080393191557  0.8569423280802921  0.2500005155869193
  0.8567464898038932 -0.0003637889367404  0.2499992623226760
  0.8566068578865047  0.1428451352477920  0.2499992707222111
  0.8560632763870114  0.2857734365315259  0.2499991404057774
  0.8559994677514401  0.4289160777863372  0.2499995945885747
  0.8565999296151919  0.5717019827434108  0.2500001569275573
  0.8587330686329598  0.7144673862060640  0.2499992538113943
  0.8556914443424514  0.8557573190960207  0.2499997765584961
  0.0477460925914216  0.0952230384471309  0.2499988341673213
  0.0461821950972614  0.2370588070282709  0.2500000205532176
  0.0457469325091262  0.3799002310654838  0.2499998088006498
  0.0475044011822070  0.5234964347838024  0.2499989406299786
  0.0486915584176874  0.6666872495200911  0.2500017457594238
  0.0486374300781127  0.8098133334575818  0.2499985693878067
  0.0482515715124942  0.9526256752908749  0.2499987488930760
  0.1914349097344551  0.0962907143652259  0.2499991361778961
  0.1910164158867543  0.2390767085352143  0.2499982882566046
  0.1878665076046697  0.3789364182094080  0.2499985661570815
  0.1895452262499437  0.5214929831508002  0.2499982753844328
  0.1914944194389079  0.6658612911521276  0.2499981939798198
  0.1916876263853666  0.8095034812127700  0.2500014202964971
  0.1914790490593966  0.9529248588038731  0.2499989481619471
  0.3340640380751583  0.0968398511383994  0.2500005614240712
  0.3382102745942629  0.2420206600795687  0.2499987563144664
  0.3343712165404092  0.6632352801755961  0.2500017902197404
  0.3345858347424838  0.8082082746759794  0.2499983233371136
  0.3338818489892362  0.9524548412429700  0.2499988855848218
  0.4762608632879013  0.0964606501913386  0.2500007173788696
  0.4738896064185255  0.2416919018296169  0.2500004225759061
  0.4782971692266245  0.8088586892661409  0.2500030994299268
  0.4765565232774183  0.9524878414743271  0.2499980963336693
  0.6185142897581715  0.0961259865220944  0.2500014397665999
  0.6181262289892386  0.2400386156652219  0.2499994750121375
  0.6198666403598306  0.9535043589131991  0.2499997939495981
  0.7617241163134262  0.0960206210742433  0.2499987452392466
  0.7610263804576467  0.2386500381921281  0.2499986458183087
  0.7603266159040867  0.3819244908950232  0.2499998966079847
  0.7597494090065255  0.5267555317110060  0.2500005568882170
  0.7633582189106645  0.6633131242188167  0.2499997444223835
  0.7588324817276848  0.8064205663894963  0.2500014716054856
  0.7616444494023129  0.9526208685457164  0.2499998897725019
  0.9041060162279007  0.0946316153404232  0.2499991364178061
  0.9036804119898740  0.2379100193135796  0.2500003684624002
  0.9034899158551787  0.3811912877497559  0.2499990790137739
  0.9042906418716671  0.5241394337698136  0.2500001084735203
  0.9058388922522461  0.6667875896796500  0.2499998322299967
  0.9049445270564701  0.8095650576511746  0.2499987401325456
  0.9040380841968156  0.9513445283918724  0.2499989090578772
  0.4282982037662987  0.7141907801969957  0.2500092582131754
  0.7163614789090946  0.7123520287288130  0.2499980565149327
  0.6275409095279181  0.6628865062042099  0.2500030250463320
  0.4728193022608028  0.6697789793986223  0.2500234048315067
  0.4280582616489799  0.2862122409466003  0.2499992505695659
  0.7162194508597738  0.5725079715870922  0.2500018905760548
  0.3308824658939972  0.3821829801550985  0.2499985679021327
  0.3293203466956021  0.5178705421392882  0.2499989352884327
  0.6192451691793733  0.3818105091791448  0.2500004332332981
  0.6213526686058656  0.8136075625230659  0.2500000957831346
 
  0.00000000E+00  0.00000000E+00  0.00000000E+00
  0.00000000E+00  0.00000000E+00  0.00000000E+00
  0.00000000E+00  0.00000000E+00  0.00000000E+00
  0.00000000E+00  0.00000000E+00  0.00000000E+00
  0.00000000E+00  0.00000000E+00  0.00000000E+00
  0.00000000E+00  0.00000000E+00  0.00000000E+00
  0.00000000E+00  0.00000000E+00  0.00000000E+00
  0.00000000E+00  0.00000000E+00  0.00000000E+00
  0.00000000E+00  0.00000000E+00  0.00000000E+00
  0.00000000E+00  0.00000000E+00  0.00000000E+00
  0.00000000E+00  0.00000000E+00  0.00000000E+00
  0.00000000E+00  0.00000000E+00  0.00000000E+00
  0.00000000E+00  0.00000000E+00  0.00000000E+00
  0.00000000E+00  0.00000000E+00  0.00000000E+00
  0.00000000E+00  0.00000000E+00  0.00000000E+00
  0.00000000E+00  0.00000000E+00  0.00000000E+00
  0.00000000E+00  0.00000000E+00  0.00000000E+00
  0.00000000E+00  0.00000000E+00  0.00000000E+00
  0.00000000E+00  0.00000000E+00  0.00000000E+00
  0.00000000E+00  0.00000000E+00  0.00000000E+00
  0.00000000E+00  0.00000000E+00  0.00000000E+00
  0.00000000E+00  0.00000000E+00  0.00000000E+00
  0.00000000E+00  0.00000000E+00  0.00000000E+00
  0.00000000E+00  0.00000000E+00  0.00000000E+00
  0.00000000E+00  0.00000000E+00  0.00000000E+00
  0.00000000E+00  0.00000000E+00  0.00000000E+00
  0.00000000E+00  0.00000000E+00  0.00000000E+00
  0.00000000E+00  0.00000000E+00  0.00000000E+00
  0.00000000E+00  0.00000000E+00  0.00000000E+00
  0.00000000E+00  0.00000000E+00  0.00000000E+00
  0.00000000E+00  0.00000000E+00  0.00000000E+00
  0.00000000E+00  0.00000000E+00  0.00000000E+00
  0.00000000E+00  0.00000000E+00  0.00000000E+00
  0.00000000E+00  0.00000000E+00  0.00000000E+00
  0.00000000E+00  0.00000000E+00  0.00000000E+00
  0.00000000E+00  0.00000000E+00  0.00000000E+00
  0.00000000E+00  0.00000000E+00  0.00000000E+00
  0.00000000E+00  0.00000000E+00  0.00000000E+00
  0.00000000E+00  0.00000000E+00  0.00000000E+00
  0.00000000E+00  0.00000000E+00  0.00000000E+00
  0.00000000E+00  0.00000000E+00  0.00000000E+00
  0.00000000E+00  0.00000000E+00  0.00000000E+00
  0.00000000E+00  0.00000000E+00  0.00000000E+00
  0.00000000E+00  0.00000000E+00  0.00000000E+00
  0.00000000E+00  0.00000000E+00  0.00000000E+00
  0.00000000E+00  0.00000000E+00  0.00000000E+00
  0.00000000E+00  0.00000000E+00  0.00000000E+00
  0.00000000E+00  0.00000000E+00  0.00000000E+00
  0.00000000E+00  0.00000000E+00  0.00000000E+00
  0.00000000E+00  0.00000000E+00  0.00000000E+00
  0.00000000E+00  0.00000000E+00  0.00000000E+00
  0.00000000E+00  0.00000000E+00  0.00000000E+00
  0.00000000E+00  0.00000000E+00  0.00000000E+00
  0.00000000E+00  0.00000000E+00  0.00000000E+00
  0.00000000E+00  0.00000000E+00  0.00000000E+00
  0.00000000E+00  0.00000000E+00  0.00000000E+00
  0.00000000E+00  0.00000000E+00  0.00000000E+00
  0.00000000E+00  0.00000000E+00  0.00000000E+00
  0.00000000E+00  0.00000000E+00  0.00000000E+00
  0.00000000E+00  0.00000000E+00  0.00000000E+00
  0.00000000E+00  0.00000000E+00  0.00000000E+00
  0.00000000E+00  0.00000000E+00  0.00000000E+00
  0.00000000E+00  0.00000000E+00  0.00000000E+00
  0.00000000E+00  0.00000000E+00  0.00000000E+00
  0.00000000E+00  0.00000000E+00  0.00000000E+00
  0.00000000E+00  0.00000000E+00  0.00000000E+00
  0.00000000E+00  0.00000000E+00  0.00000000E+00
  0.00000000E+00  0.00000000E+00  0.00000000E+00
  0.00000000E+00  0.00000000E+00  0.00000000E+00
  0.00000000E+00  0.00000000E+00  0.00000000E+00
  0.00000000E+00  0.00000000E+00  0.00000000E+00
  0.00000000E+00  0.00000000E+00  0.00000000E+00
  0.00000000E+00  0.00000000E+00  0.00000000E+00
  0.00000000E+00  0.00000000E+00  0.00000000E+00
  0.00000000E+00  0.00000000E+00  0.00000000E+00
  0.00000000E+00  0.00000000E+00  0.00000000E+00
  0.00000000E+00  0.00000000E+00  0.00000000E+00
  0.00000000E+00  0.00000000E+00  0.00000000E+00
  0.00000000E+00  0.00000000E+00  0.00000000E+00
  0.00000000E+00  0.00000000E+00  0.00000000E+00
  0.00000000E+00  0.00000000E+00  0.00000000E+00
  0.00000000E+00  0.00000000E+00  0.00000000E+00
  0.00000000E+00  0.00000000E+00  0.00000000E+00
  0.00000000E+00  0.00000000E+00  0.00000000E+00
  0.00000000E+00  0.00000000E+00  0.00000000E+00
  0.00000000E+00  0.00000000E+00  0.00000000E+00
  0.00000000E+00  0.00000000E+00  0.00000000E+00
  0.00000000E+00  0.00000000E+00  0.00000000E+00
  0.00000000E+00  0.00000000E+00  0.00000000E+00
  0.00000000E+00  0.00000000E+00  0.00000000E+00
