C    N    H    O                        
   1.00000000000000     
    17.2710380553999983    0.0000000000000000    0.0000000000000000
    -8.6355190276999991   14.9571577057000002    0.0000000000000000
     0.0000000000000000    0.0000000000000000   15.0000000000000000
  C/253f7b50bb8d  N/e053789ff3a6  H/030f79b5d3ab  O/818f92134a0a
              80               8               2               1
Selective dynamics
Direct
  0.9999078289471199  0.9998681808419901  0.5000501382013947   T   T   T
  0.9991968326598549  0.1422284514446338  0.5001838747311379   T   T   T
  0.9989730356176616  0.2852053639201449  0.5000009275096222   T   T   T
  0.9991848546488015  0.4284045738272427  0.4997440367471052   T   T   T
  0.9999116192992127  0.5715203202111357  0.4997706967087541   T   T   T
  0.0013518541975497  0.7148428553245662  0.4999535099281116   T   T   T
  0.0013643760450159  0.8580207064551933  0.4999744887488762   T   T   T
  0.1442971891579899  0.0016693207502035  0.4997408580072021   T   T   T
  0.1437269759909081  0.1442756218704949  0.4997754132531129   T   T   T
  0.1421588640124064  0.2854615228096892  0.4995891590277621   T   T   T
  0.1421583310389467  0.4281421059423129  0.4992288478501674   T   T   T
  0.1436993283045512  0.5708976514017096  0.4991469056971634   T   T   T
  0.1442550765508971  0.7141132169650704  0.4994621290213992   T   T   T
  0.1442919066448002  0.8579046912750314  0.4997079093216558   T   T   T
  0.2868761651403649  0.0011526606906271  0.4992141758061251   T   T   T
  0.2876055038089532  0.1459731678321325  0.4988923465990653   T   T   T
  0.2885750390885564  0.2933962372983791  0.4977913347972232   T   T   T
  0.2850561596401852  0.4282125357481329  0.4970679086440362   T   T   T
  0.2886120318064265  0.5666392540763638  0.4974245580668660   T   T   T
  0.2875297314893477  0.7130927218360883  0.4983497556013562   T   T   T
  0.2868350676934480  0.8572434589124147  0.4990070501181164   T   T   T
  0.4294426794077222  0.0005155774820250  0.4988169763859587   T   T   T
  0.4295275287371629  0.1453550879949515  0.4989836386543260   T   T   T
  0.4294691303522336  0.8557253143106037  0.4982374513749276   T   T   T
  0.5712948812897015  0.9992620371381518  0.4986753256970385   T   T   T
  0.5713139068493478  0.1436504490777176  0.4991010122880396   T   T   T
  0.5735983186693848  0.2913585070142482  0.4990489397096907   T   T   T
  0.5735633794210672  0.8538398855779135  0.4978677944648763   T   T   T
  0.7133729093367037  0.9980744554234928  0.4989160523057032   T   T   T
  0.7137552125542382  0.1426587045270138  0.4993951122196981   T   T   T
  0.7134078524882167  0.2868970757936785  0.4992972556098585   T   T   T
  0.7089897173938440  0.4278395775031125  0.4986257413931862   T   T   T
  0.7089598596272877  0.8527595466204201  0.4978348894072953   T   T   T
  0.8559916879038879  0.9984042884035920  0.4994502020187890   T   T   T
  0.8560180389037148  0.1419828950056445  0.4998426417115989   T   T   T
  0.8560283842045444  0.2855567783749923  0.4997558926888470   T   T   T
  0.8559940755891621  0.4291188835640303  0.4995100212164287   T   T   T
  0.8562838933534944  0.5722629206527862  0.4994160826009196   T   T   T
  0.8586354114661491  0.7150890177891726  0.4991295785043789   T   T   T
  0.8562735251909320  0.8555404752909868  0.4990834048931869   T   T   T
  0.0478907927153789  0.0955260862629845  0.5001482763882383   T   T   T
  0.0464654285641611  0.2373771757595879  0.5000751997474756   T   T   T
  0.0464608542593566  0.3805235634910322  0.4997522189894429   T   T   T
  0.0478769342467251  0.5238106790838829  0.4995968454763861   T   T   T
  0.0485947455072067  0.6669260689466123  0.4998257297489534   T   T   T
  0.0488526104974313  0.8101781163455749  0.4999785037472353   T   T   T
  0.0486233007671958  0.9531798423784678  0.5000037051336307   T   T   T
  0.1918672087090831  0.0970539978358549  0.4994376674912168   T   T   T
  0.1915212727491435  0.2398573531172979  0.4993244360406919   T   T   T
  0.1891492923161846  0.3802921230357738  0.4989506145889158   T   T   T
  0.1915266712237812  0.5231231411650368  0.4987070667640168   T   T   T
  0.1917980451666734  0.6662784799903831  0.4989667621125710   T   T   T
  0.1917746797692446  0.8098480977334019  0.4993920212418948   T   T   T
  0.1918096654749894  0.9534615816491886  0.4995373558404905   T   T   T
  0.3344818403422445  0.0974004909489598  0.4990248389972037   T   T   T
  0.3388446463493826  0.2427152932876100  0.4982777603855731   T   T   T
  0.3388242326696757  0.6676533245778835  0.4976418644914760   T   T   T
  0.3344096863372522  0.8085715206038058  0.4985291626164529   T   T   T
  0.3340558333659106  0.9528034513565519  0.4990300091730320   T   T   T
  0.4765398682203316  0.0962486635413485  0.4989803904299517   T   T   T
  0.4742935232271273  0.2416849072159637  0.4989466988654128   T   T   T
  0.4742320768825714  0.8041634156058577  0.4978143645377159   T   T   T
  0.4765229724489573  0.9518742586402201  0.4985137760701526   T   T   T
  0.6183844344463837  0.0949921809227458  0.4990774085287365   T   T   T
  0.6183618144282983  0.2398029346422155  0.4991735560411030   T   T   T
  0.6183222971551807  0.9501644401013183  0.4984653616087303   T   T   T
  0.7609590674514090  0.0943209549974728  0.4994556037179458   T   T   T
  0.7609699172323533  0.2382037700288199  0.4995376059906058   T   T   T
  0.7602622863529918  0.3823504741158435  0.4991656953911147   T   T   T
  0.7592158205027547  0.5287946271643037  0.4981386423994976   T   T   T
  0.7627112015451836  0.6671410662624387  0.4972930137004272   T   T   T
  0.7591898150228871  0.8019820143061306  0.4976361970729016   T   T   T
  0.7602559210635959  0.9495048860649653  0.4987593174539745   T   T   T
  0.9035297899432077  0.0937720445103128  0.4999178654928090   T   T   T
  0.9035334839981952  0.2375195615334420  0.4999454789955882   T   T   T
  0.9035258250297356  0.3812648667314788  0.4997424126079929   T   T   T
  0.9040932991538496  0.5244763181059210  0.4996723957183261   T   T   T
  0.9056463182179603  0.6672427659641721  0.4996292948437357   T   T   T
  0.9056462310180258  0.8099403721819066  0.4995099105562630   T   T   T
  0.9040813562058224  0.9511346160783735  0.4996317243596922   T   T   T
  0.4286737345732107  0.2865821952218990  0.4985576055636443   T   T   T
  0.4286075157747973  0.7136726451406373  0.4974890274615487   T   T   T
  0.7159954371130539  0.5752292781649156  0.4962454654734801   T   T   T
  0.7159477330659196  0.7123027123292985  0.4961556764902813   T   T   T
  0.3317912876623090  0.3830459865172573  0.4958412134329715   T   T   T
  0.3318270224699741  0.5201524516547378  0.4960641643782592   T   T   T
  0.6191753628333089  0.3818675003717239  0.4987899991567503   T   T   T
  0.6191676749074154  0.8089618584756675  0.4974680396529119   T   T   T
  0.5191909597898361  0.5736748438338751  0.5657705834910882   T   T   T
  0.5217064614378711  0.4865296612815941  0.5630084452476909   T   T   T
  0.5217145854142272  0.5298435296841432  0.6046639079999991   T   T   F
 
  0.00000000E+00  0.00000000E+00  0.00000000E+00
  0.00000000E+00  0.00000000E+00  0.00000000E+00
  0.00000000E+00  0.00000000E+00  0.00000000E+00
  0.00000000E+00  0.00000000E+00  0.00000000E+00
  0.00000000E+00  0.00000000E+00  0.00000000E+00
  0.00000000E+00  0.00000000E+00  0.00000000E+00
  0.00000000E+00  0.00000000E+00  0.00000000E+00
  0.00000000E+00  0.00000000E+00  0.00000000E+00
  0.00000000E+00  0.00000000E+00  0.00000000E+00
  0.00000000E+00  0.00000000E+00  0.00000000E+00
  0.00000000E+00  0.00000000E+00  0.00000000E+00
  0.00000000E+00  0.00000000E+00  0.00000000E+00
  0.00000000E+00  0.00000000E+00  0.00000000E+00
  0.00000000E+00  0.00000000E+00  0.00000000E+00
  0.00000000E+00  0.00000000E+00  0.00000000E+00
  0.00000000E+00  0.00000000E+00  0.00000000E+00
  0.00000000E+00  0.00000000E+00  0.00000000E+00
  0.00000000E+00  0.00000000E+00  0.00000000E+00
  0.00000000E+00  0.00000000E+00  0.00000000E+00
  0.00000000E+00  0.00000000E+00  0.00000000E+00
  0.00000000E+00  0.00000000E+00  0.00000000E+00
  0.00000000E+00  0.00000000E+00  0.00000000E+00
  0.00000000E+00  0.00000000E+00  0.00000000E+00
  0.00000000E+00  0.00000000E+00  0.00000000E+00
  0.00000000E+00  0.00000000E+00  0.00000000E+00
  0.00000000E+00  0.00000000E+00  0.00000000E+00
  0.00000000E+00  0.00000000E+00  0.00000000E+00
  0.00000000E+00  0.00000000E+00  0.00000000E+00
  0.00000000E+00  0.00000000E+00  0.00000000E+00
  0.00000000E+00  0.00000000E+00  0.00000000E+00
  0.00000000E+00  0.00000000E+00  0.00000000E+00
  0.00000000E+00  0.00000000E+00  0.00000000E+00
  0.00000000E+00  0.00000000E+00  0.00000000E+00
  0.00000000E+00  0.00000000E+00  0.00000000E+00
  0.00000000E+00  0.00000000E+00  0.00000000E+00
  0.00000000E+00  0.00000000E+00  0.00000000E+00
  0.00000000E+00  0.00000000E+00  0.00000000E+00
  0.00000000E+00  0.00000000E+00  0.00000000E+00
  0.00000000E+00  0.00000000E+00  0.00000000E+00
  0.00000000E+00  0.00000000E+00  0.00000000E+00
  0.00000000E+00  0.00000000E+00  0.00000000E+00
  0.00000000E+00  0.00000000E+00  0.00000000E+00
  0.00000000E+00  0.00000000E+00  0.00000000E+00
  0.00000000E+00  0.00000000E+00  0.00000000E+00
  0.00000000E+00  0.00000000E+00  0.00000000E+00
  0.00000000E+00  0.00000000E+00  0.00000000E+00
  0.00000000E+00  0.00000000E+00  0.00000000E+00
  0.00000000E+00  0.00000000E+00  0.00000000E+00
  0.00000000E+00  0.00000000E+00  0.00000000E+00
  0.00000000E+00  0.00000000E+00  0.00000000E+00
  0.00000000E+00  0.00000000E+00  0.00000000E+00
  0.00000000E+00  0.00000000E+00  0.00000000E+00
  0.00000000E+00  0.00000000E+00  0.00000000E+00
  0.00000000E+00  0.00000000E+00  0.00000000E+00
  0.00000000E+00  0.00000000E+00  0.00000000E+00
  0.00000000E+00  0.00000000E+00  0.00000000E+00
  0.00000000E+00  0.00000000E+00  0.00000000E+00
  0.00000000E+00  0.00000000E+00  0.00000000E+00
  0.00000000E+00  0.00000000E+00  0.00000000E+00
  0.00000000E+00  0.00000000E+00  0.00000000E+00
  0.00000000E+00  0.00000000E+00  0.00000000E+00
  0.00000000E+00  0.00000000E+00  0.00000000E+00
  0.00000000E+00  0.00000000E+00  0.00000000E+00
  0.00000000E+00  0.00000000E+00  0.00000000E+00
  0.00000000E+00  0.00000000E+00  0.00000000E+00
  0.00000000E+00  0.00000000E+00  0.00000000E+00
  0.00000000E+00  0.00000000E+00  0.00000000E+00
  0.00000000E+00  0.00000000E+00  0.00000000E+00
  0.00000000E+00  0.00000000E+00  0.00000000E+00
  0.00000000E+00  0.00000000E+00  0.00000000E+00
  0.00000000E+00  0.00000000E+00  0.00000000E+00
  0.00000000E+00  0.00000000E+00  0.00000000E+00
  0.00000000E+00  0.00000000E+00  0.00000000E+00
  0.00000000E+00  0.00000000E+00  0.00000000E+00
  0.00000000E+00  0.00000000E+00  0.00000000E+00
  0.00000000E+00  0.00000000E+00  0.00000000E+00
  0.00000000E+00  0.00000000E+00  0.00000000E+00
  0.00000000E+00  0.00000000E+00  0.00000000E+00
  0.00000000E+00  0.00000000E+00  0.00000000E+00
  0.00000000E+00  0.00000000E+00  0.00000000E+00
  0.00000000E+00  0.00000000E+00  0.00000000E+00
  0.00000000E+00  0.00000000E+00  0.00000000E+00
  0.00000000E+00  0.00000000E+00  0.00000000E+00
  0.00000000E+00  0.00000000E+00  0.00000000E+00
  0.00000000E+00  0.00000000E+00  0.00000000E+00
  0.00000000E+00  0.00000000E+00  0.00000000E+00
  0.00000000E+00  0.00000000E+00  0.00000000E+00
  0.00000000E+00  0.00000000E+00  0.00000000E+00
  0.00000000E+00  0.00000000E+00  0.00000000E+00
  0.00000000E+00  0.00000000E+00  0.00000000E+00
  0.00000000E+00  0.00000000E+00  0.00000000E+00
