C    N    H    O 
    1.000000000000000     
  17.2710380553999983   0.0000000000000000   0.0000000000000000
  -8.6355190276999991  14.9571577057000002   0.0000000000000000
   0.0000000000000000   0.0000000000000000  15.0000000000000000
C    N    H    O 
80  8  2  1  
Selective dynamics
Direct
  0.9998972445984746  0.9997729765851444  0.5004701921672123 T T T
  0.9992557909374600  0.1422241589238676  0.5003568443257150 T T T
  0.9990098203722572  0.2851650027163591  0.5007935364705209 T T T
  0.9992569537550720  0.4283756716835929  0.5007780382912133 T T T
  0.9999134448198330  0.5714493463835943  0.5001678046101173 T T T
  0.0013864591972322  0.7148328148415258  0.4999764108877665 T T T
  0.0013354817067412  0.8579049028139955  0.5004135654601621 T T T
  0.1442878240380065  0.0014579669429738  0.5009381682124960 T T T
  0.1437678007656985  0.1441837385499128  0.5003414505182529 T T T
  0.1421866668436312  0.2853526693774097  0.4995113588167829 T T T
  0.1422199683880233  0.4280459652188484  0.4990051179305617 T T T
  0.1438007664054207  0.5708762635946109  0.4988845067621526 T T T
  0.1443045473973597  0.7140851961677038  0.4996653764764540 T T T
  0.1442801565028303  0.8577577385680049  0.5007188035914343 T T T
  0.2868026049546668  0.0009812186944963  0.5005029884342436 T T T
  0.2875453716783723  0.1457931823695690  0.4998427184869416 T T T
  0.2885872214842129  0.2932855139775020  0.4976917439607184 T T T
  0.2850240223086467  0.4280952019315480  0.4959568936134090 T T T
  0.2886220498703364  0.5665421114984301  0.4960053456802048 T T T
  0.2875584515531970  0.7130253519698477  0.4976071620706995 T T T
  0.2868451070238321  0.8571339792928276  0.4994920252507938 T T T
  0.4293453760141416  0.0004536305799310  0.4992244952164424 T T T
  0.4294166019776638  0.1452756147310577  0.4995765911850898 T T T
  0.4294106349815654  0.8556751682900228  0.4975970334487456 T T T
  0.5712750999581266  0.9992396826970852  0.4984593395206472 T T T
  0.5713085030334139  0.1437363269203379  0.4993706057186628 T T T
  0.5735100993535015  0.2913799207561413  0.4988465563236453 T T T
  0.5735430586249911  0.8538008740386681  0.4969232626020970 T T T
  0.7133741537460445  0.9981099064671174  0.4987779117772020 T T T
  0.7137260208391755  0.1427134646867735  0.5001914980303069 T T T
  0.7133718861755378  0.2869498168294920  0.5002593151378538 T T T
  0.7089690899429605  0.4279005648914863  0.4983806635331832 T T T
  0.7089840101140008  0.8527751770694232  0.4971893765116973 T T T
  0.8559453185816640  0.9984268289495580  0.4993758471485485 T T T
  0.8561162705828943  0.1420425766608769  0.5005377133837209 T T T
  0.8560790909091177  0.2856261394547431  0.5013767132460242 T T T
  0.8559189270309042  0.4290915865313719  0.5005565741017695 T T T
  0.8562596179886305  0.5723169382044732  0.4992589110093187 T T T
  0.8585811955558077  0.7151239950376657  0.4987989581506634 T T T
  0.8562211716672354  0.8555215711472488  0.4987951925998398 T T T
  0.0479344386221803  0.0954686215062498  0.5004336123705709 T T T
  0.0464950529680391  0.2373254997852116  0.5002838307737910 T T T
  0.0465146901902871  0.3804742939489363  0.5004098647364841 T T T
  0.0479452615006060  0.5237922263498029  0.5000409590119419 T T T
  0.0486432201093824  0.6668779443992642  0.4999868599255269 T T T
  0.0489166247212236  0.8101299112479630  0.5005001606831313 T T T
  0.0486120396060872  0.9530384006898694  0.5007944246195223 T T T
  0.1918350762135194  0.0968710948161023  0.5004631439623506 T T T
  0.1915210847006741  0.2397434272577053  0.4994477637331727 T T T
  0.1891672050046876  0.3801651778306880  0.4983967186540336 T T T
  0.1915460033293481  0.5230259895419447  0.4979730953459045 T T T
  0.1918832075961711  0.6662720307553004  0.4986806315853905 T T T
  0.1917661177604207  0.8097460270689477  0.5000104186261866 T T T
  0.1917576553477758  0.9532747171189354  0.5008932441396159 T T T
  0.3343658304503781  0.0971620019856895  0.5000974462714500 T T T
  0.3387867478246825  0.2425697782533411  0.4986028251421351 T T T
  0.3388499786183146  0.6675740925543092  0.4961895213679278 T T T
  0.3343929981314399  0.8085175669320763  0.4982154460005176 T T T
  0.3340329941183683  0.9526788043689312  0.4998396190893380 T T T
  0.4764734187753562  0.0962701193988996  0.4993777947498704 T T T
  0.4742282724853346  0.2416975742491073  0.4990012148332567 T T T
  0.4742702766675593  0.8041338292895617  0.4965856217992072 T T T
  0.4764098272076986  0.9517653750984230  0.4983429313806111 T T T
  0.6183620183851081  0.0950187909740992  0.4993518810483277 T T T
  0.6183059248043078  0.2398201110745314  0.4995538470817256 T T T
  0.6182882572166510  0.9501673645829556  0.4979696937569777 T T T
  0.7609886656194081  0.0943670789972794  0.4999779000118519 T T T
  0.7609691408926923  0.2382979448699588  0.5008995744579036 T T T
  0.7602320282765840  0.3824105184292930  0.4998889394920086 T T T
  0.7591931548213190  0.5288350808506517  0.4977403666109720 T T T
  0.7626299074950352  0.6671201955729125  0.4967828858858664 T T T
  0.7591488296541683  0.8019756610010108  0.4971219989981616 T T T
  0.7602709465793925  0.9495105326973372  0.4984083112834021 T T T
  0.9035964865835192  0.0938051108878194  0.5001745144748634 T T T
  0.9036143764463588  0.2375746430822860  0.5011897019088928 T T T
  0.9035781817284479  0.3813080245039153  0.5012103856013252 T T T
  0.9040361102595250  0.5244728809385977  0.5001729122005262 T T T
  0.9056277694080772  0.6673033130255885  0.4993077758798097 T T T
  0.9056220829021880  0.8099469431053106  0.4994340409947446 T T T
  0.9040208192949504  0.9510836181794672  0.4996117570841695 T T T
  0.4286123318357254  0.2865385231479539  0.4984074771092900 T T T
  0.4286732856454019  0.7136459418864318  0.4957334093629745 T T T
  0.7159175943240547  0.5752252426888140  0.4956010369165197 T T T
  0.7158703355224286  0.7122726034226894  0.4955535600529137 T T T
  0.3317980190877257  0.3829538486940404  0.4949933776567009 T T T
  0.3318203637370604  0.5200359077369476  0.4944289576016062 T T T
  0.6191186727700568  0.3818808651702399  0.4981600338273844 T T T
  0.6191694102542461  0.8089671878592235  0.4965044383616681 T T T
  0.5199674094490830  0.5751264870302251  0.5658280178714445 T T T
  0.5218630723585924  0.4877126303148000  0.5628712497748559 T T T
  0.5215039011612548  0.5307259747220936  0.6046639079999991 T T F
