C    H    N    O                        
   1.00000000000000     
    17.2710380553999983    0.0000000000000000    0.0000000000000000
    -8.6355190276999991   14.9571577057000002    0.0000000000000000
     0.0000000000000000    0.0000000000000000   15.0000000000000000
  C/253f7b50bb8d  H/030f79b5d3ab  N/e053789ff3a6  O/818f92134a0a
              84               6               4               1
Selective dynamics
Direct
  0.0013830025046033  0.0006260078723272  0.5000925546457040   T   T   T
  0.0008620599005056  0.1430816976253197  0.4999777144848849   T   T   T
  0.0005246064685451  0.2859260134129400  0.4998839809860200   T   T   T
  0.0008669520573434  0.4291183041526239  0.4999755341957268   T   T   T
  0.0013590234496945  0.5720821060624388  0.5000674675626868   T   T   T
  0.0017381258883304  0.7149380194378310  0.5001025400481538   T   T   T
  0.0017834139384121  0.8582031003742259  0.5000934829854344   T   T   T
  0.1451735602411830  0.0017926305692058  0.5000169294558319   T   T   T
  0.1447265668246516  0.1444715921551776  0.4999456945193188   T   T   T
  0.1428597574262938  0.2859170812556471  0.4998255543150449   T   T   T
  0.1428188523332210  0.4282878701713813  0.4998882733545642   T   T   T
  0.1447131753946280  0.5715703305316069  0.5000018706489655   T   T   T
  0.1451409017160117  0.7146985395143091  0.5000497170399925   T   T   T
  0.1450733442660379  0.8582094294307510  0.5000235879612731   T   T   T
  0.2880454209857888  0.0018270100716293  0.4999652632521503   T   T   T
  0.2883516064322222  0.1465072643323140  0.4999548796784055   T   T   T
  0.2876398285532815  0.2926130516372751  0.4999327491518599   T   T   T
  0.2853797459990730  0.4283549079588269  0.4999137524258899   T   T   T
  0.2876251462758077  0.5663549104644972  0.4999784007307468   T   T   T
  0.2883324376659715  0.7132322470067365  0.5000280297285258   T   T   T
  0.2880429976946246  0.8576194280090945  0.5000062152526823   T   T   T
  0.4305724795675161  0.0009802327306971  0.4999744995311914   T   T   T
  0.4312348798054657  0.1456003307596916  0.4999208362807579   T   T   T
  0.4305035056749489  0.2871749677349698  0.4999913181151427   T   T   T
  0.4304425128667546  0.7146744619164451  0.5001084525198749   T   T   T
  0.4312497794267500  0.8570479483875459  0.5000562333821819   T   T   T
  0.5728948094693322  0.0005572053960350  0.5000244413869339   T   T   T
  0.5728931105673638  0.1437126881289856  0.4999512915941153   T   T   T
  0.5765906620480834  0.2902128483029642  0.4999516702187492   T   T   T
  0.5765912522299672  0.8577218808759710  0.5001342118379810   T   T   T
  0.7157921782043601  0.0009584485685039  0.5001047931434073   T   T   T
  0.7156400250506891  0.1434857109402330  0.4999953794607279   T   T   T
  0.7158269735821889  0.2861874514462528  0.4999491198300348   T   T   T
  0.7118282509780798  0.4256812787732187  0.5000079337517320   T   T   T
  0.7161026977780409  0.5724211936407997  0.5001221645340479   T   T   T
  0.7161289183592459  0.7150621246385498  0.5002595600490878   T   T   T
  0.7118568590646390  0.8575185471304749  0.5002056278453395   T   T   T
  0.8581650305273527  0.0002379080619406  0.5001892153772118   T   T   T
  0.8581632713566947  0.1432999162462423  0.5000283771770455   T   T   T
  0.8581787745370306  0.2861831972721944  0.4999647752281646   T   T   T
  0.8581623707656192  0.4292625674312518  0.5000117119004912   T   T   T
  0.8573701949128889  0.5715017875009920  0.5001122860557814   T   T   T
  0.8588068324011289  0.7150861144819061  0.5001372049391932   T   T   T
  0.8574110808599116  0.8572510050428335  0.5001854601351354   T   T   T
  0.0491828972971788  0.0960741891461652  0.5000050492175916   T   T   T
  0.0477292322185932  0.2380913560857465  0.4998640340821296   T   T   T
  0.0477263362444944  0.3809747718028760  0.4998948445187992   T   T   T
  0.0491628188112614  0.5244325939564973  0.5000129785962670   T   T   T
  0.0495228584615717  0.6674198127511346  0.5000745411302461   T   T   T
  0.0494264696029276  0.8103845244559835  0.5000714721967796   T   T   T
  0.0495705822850070  0.9534889924405334  0.5000761458341501   T   T   T
  0.1927993704443267  0.0972302761916026  0.4999799719746321   T   T   T
  0.1917101890588242  0.2399793338720855  0.4998798088472327   T   T   T
  0.1897316579128656  0.3805551936655007  0.4998576195590161   T   T   T
  0.1917053477567023  0.5230618417424111  0.4999585783710927   T   T   T
  0.1927640839556233  0.6668866642514928  0.5000252260703348   T   T   T
  0.1927648273767488  0.8103218131173975  0.5000271394596822   T   T   T
  0.1927835839725915  0.9538020891706296  0.4999981344822970   T   T   T
  0.3358623853636757  0.0982357348099043  0.4999358383787040   T   T   T
  0.3369118726100808  0.2430588792345247  0.4999694745172860   T   T   T
  0.3368687020154795  0.6652044703848503  0.5000283617301804   T   T   T
  0.3358442863508415  0.8090315242066097  0.5000351585792444   T   T   T
  0.3351867079419009  0.9533053634033308  0.4999794939741804   T   T   T
  0.4779047752542098  0.0964865797776824  0.4999300058762373   T   T   T
  0.4787325098956572  0.2415547102161497  0.4999525971581207   T   T   T
  0.4787115492127398  0.8085382799091221  0.5001067759408286   T   T   T
  0.4779124009907250  0.9528344714456694  0.5000165324506227   T   T   T
  0.6202071641906812  0.0957868669405002  0.4999930580475862   T   T   T
  0.6210567961541784  0.2392874474146112  0.4999331158699079   T   T   T
  0.6210541087961658  0.9531175113081147  0.5000761444354040   T   T   T
  0.7632958759333306  0.0961805847517141  0.5000453777974627   T   T   T
  0.7633345213554463  0.2384532190697826  0.4999688847683501   T   T   T
  0.7626747351270780  0.3810278306997432  0.4999829523685975   T   T   T
  0.7608277743478666  0.5239751857435806  0.5000656099649419   T   T   T
  0.7629498226121498  0.6671535348107795  0.5001823207151688   T   T   T
  0.7608717933077642  0.8082401425652890  0.5002408352598451   T   T   T
  0.7626957322636372  0.9530079910191702  0.5001855876689234   T   T   T
  0.9056109567394230  0.0952719524413155  0.5000791317489686   T   T   T
  0.9054868387243502  0.2383763670730019  0.4999513721412043   T   T   T
  0.9056151304263480  0.3816600351932351  0.4999893408051079   T   T   T
  0.9058148869423235  0.5246180115015449  0.5000740987170218   T   T   T
  0.9058614437432198  0.6670252722572059  0.5001365653666809   T   T   T
  0.9059023740694343  0.8102285301811207  0.5001412261945433   T   T   T
  0.9058532161356325  0.9525824073744005  0.5001830474106441   T   T   T
  0.4687639414864435  0.3598599684149377  0.5000431773624001   T   T   T
  0.6432027837765446  0.6772171122261099  0.5002726923136862   T   T   T
  0.6431708407461940  0.5373633185095912  0.5001181777465646   T   T   T
  0.4686710623131702  0.6802106817129427  0.5001584424897345   T   T   T
  0.4638123324058654  0.5599749086495649  0.5000029549050709   T   T   T
  0.4630299418953427  0.4743897156060441  0.4999941869803521   T   T   T
  0.3316576678265903  0.3829319849337836  0.4999410724081699   T   T   T
  0.3316725435080130  0.5200749428581233  0.4999614270147177   T   T   T
  0.6218362034153699  0.3805441056256029  0.4999914013301918   T   T   T
  0.6218504055171579  0.8126466927139546  0.5001854624685933   T   T   T
  0.5071202571559468  0.5387461369114206  0.5000000455000091   T   T   F
 
  0.00000000E+00  0.00000000E+00  0.00000000E+00
  0.00000000E+00  0.00000000E+00  0.00000000E+00
  0.00000000E+00  0.00000000E+00  0.00000000E+00
  0.00000000E+00  0.00000000E+00  0.00000000E+00
  0.00000000E+00  0.00000000E+00  0.00000000E+00
  0.00000000E+00  0.00000000E+00  0.00000000E+00
  0.00000000E+00  0.00000000E+00  0.00000000E+00
  0.00000000E+00  0.00000000E+00  0.00000000E+00
  0.00000000E+00  0.00000000E+00  0.00000000E+00
  0.00000000E+00  0.00000000E+00  0.00000000E+00
  0.00000000E+00  0.00000000E+00  0.00000000E+00
  0.00000000E+00  0.00000000E+00  0.00000000E+00
  0.00000000E+00  0.00000000E+00  0.00000000E+00
  0.00000000E+00  0.00000000E+00  0.00000000E+00
  0.00000000E+00  0.00000000E+00  0.00000000E+00
  0.00000000E+00  0.00000000E+00  0.00000000E+00
  0.00000000E+00  0.00000000E+00  0.00000000E+00
  0.00000000E+00  0.00000000E+00  0.00000000E+00
  0.00000000E+00  0.00000000E+00  0.00000000E+00
  0.00000000E+00  0.00000000E+00  0.00000000E+00
  0.00000000E+00  0.00000000E+00  0.00000000E+00
  0.00000000E+00  0.00000000E+00  0.00000000E+00
  0.00000000E+00  0.00000000E+00  0.00000000E+00
  0.00000000E+00  0.00000000E+00  0.00000000E+00
  0.00000000E+00  0.00000000E+00  0.00000000E+00
  0.00000000E+00  0.00000000E+00  0.00000000E+00
  0.00000000E+00  0.00000000E+00  0.00000000E+00
  0.00000000E+00  0.00000000E+00  0.00000000E+00
  0.00000000E+00  0.00000000E+00  0.00000000E+00
  0.00000000E+00  0.00000000E+00  0.00000000E+00
  0.00000000E+00  0.00000000E+00  0.00000000E+00
  0.00000000E+00  0.00000000E+00  0.00000000E+00
  0.00000000E+00  0.00000000E+00  0.00000000E+00
  0.00000000E+00  0.00000000E+00  0.00000000E+00
  0.00000000E+00  0.00000000E+00  0.00000000E+00
  0.00000000E+00  0.00000000E+00  0.00000000E+00
  0.00000000E+00  0.00000000E+00  0.00000000E+00
  0.00000000E+00  0.00000000E+00  0.00000000E+00
  0.00000000E+00  0.00000000E+00  0.00000000E+00
  0.00000000E+00  0.00000000E+00  0.00000000E+00
  0.00000000E+00  0.00000000E+00  0.00000000E+00
  0.00000000E+00  0.00000000E+00  0.00000000E+00
  0.00000000E+00  0.00000000E+00  0.00000000E+00
  0.00000000E+00  0.00000000E+00  0.00000000E+00
  0.00000000E+00  0.00000000E+00  0.00000000E+00
  0.00000000E+00  0.00000000E+00  0.00000000E+00
  0.00000000E+00  0.00000000E+00  0.00000000E+00
  0.00000000E+00  0.00000000E+00  0.00000000E+00
  0.00000000E+00  0.00000000E+00  0.00000000E+00
  0.00000000E+00  0.00000000E+00  0.00000000E+00
  0.00000000E+00  0.00000000E+00  0.00000000E+00
  0.00000000E+00  0.00000000E+00  0.00000000E+00
  0.00000000E+00  0.00000000E+00  0.00000000E+00
  0.00000000E+00  0.00000000E+00  0.00000000E+00
  0.00000000E+00  0.00000000E+00  0.00000000E+00
  0.00000000E+00  0.00000000E+00  0.00000000E+00
  0.00000000E+00  0.00000000E+00  0.00000000E+00
  0.00000000E+00  0.00000000E+00  0.00000000E+00
  0.00000000E+00  0.00000000E+00  0.00000000E+00
  0.00000000E+00  0.00000000E+00  0.00000000E+00
  0.00000000E+00  0.00000000E+00  0.00000000E+00
  0.00000000E+00  0.00000000E+00  0.00000000E+00
  0.00000000E+00  0.00000000E+00  0.00000000E+00
  0.00000000E+00  0.00000000E+00  0.00000000E+00
  0.00000000E+00  0.00000000E+00  0.00000000E+00
  0.00000000E+00  0.00000000E+00  0.00000000E+00
  0.00000000E+00  0.00000000E+00  0.00000000E+00
  0.00000000E+00  0.00000000E+00  0.00000000E+00
  0.00000000E+00  0.00000000E+00  0.00000000E+00
  0.00000000E+00  0.00000000E+00  0.00000000E+00
  0.00000000E+00  0.00000000E+00  0.00000000E+00
  0.00000000E+00  0.00000000E+00  0.00000000E+00
  0.00000000E+00  0.00000000E+00  0.00000000E+00
  0.00000000E+00  0.00000000E+00  0.00000000E+00
  0.00000000E+00  0.00000000E+00  0.00000000E+00
  0.00000000E+00  0.00000000E+00  0.00000000E+00
  0.00000000E+00  0.00000000E+00  0.00000000E+00
  0.00000000E+00  0.00000000E+00  0.00000000E+00
  0.00000000E+00  0.00000000E+00  0.00000000E+00
  0.00000000E+00  0.00000000E+00  0.00000000E+00
  0.00000000E+00  0.00000000E+00  0.00000000E+00
  0.00000000E+00  0.00000000E+00  0.00000000E+00
  0.00000000E+00  0.00000000E+00  0.00000000E+00
  0.00000000E+00  0.00000000E+00  0.00000000E+00
  0.00000000E+00  0.00000000E+00  0.00000000E+00
  0.00000000E+00  0.00000000E+00  0.00000000E+00
  0.00000000E+00  0.00000000E+00  0.00000000E+00
  0.00000000E+00  0.00000000E+00  0.00000000E+00
  0.00000000E+00  0.00000000E+00  0.00000000E+00
  0.00000000E+00  0.00000000E+00  0.00000000E+00
  0.00000000E+00  0.00000000E+00  0.00000000E+00
  0.00000000E+00  0.00000000E+00  0.00000000E+00
  0.00000000E+00  0.00000000E+00  0.00000000E+00
  0.00000000E+00  0.00000000E+00  0.00000000E+00
  0.00000000E+00  0.00000000E+00  0.00000000E+00
