C    H    N    O                        
    1.000000000000000     
    17.2710380553999983    0.0000000000000000    0.0000000000000000
    -8.6355190276999991   14.9571577057000002    0.0000000000000000
     0.0000000000000000    0.0000000000000000   15.0000000000000000
   C    H    N    O 
    84     6     4     1
Selective dynamics
Direct
  0.0013830025046062  0.0006260078723237  0.5000925546457038   T   T   T
  0.0008620599005029  0.1430816976253174  0.4999777144848864   T   T   T
  0.0005246064685450  0.2859260134129424  0.4998839809860213   T   T   T
  0.0008669520573456  0.4291183041526209  0.4999755341957235   T   T   T
  0.0013590234496912  0.5720821060624398  0.5000674675626872   T   T   T
  0.0017381258883282  0.7149380194378340  0.5001025400481551   T   T   T
  0.0017834139384110  0.8582031003742238  0.5000934829854345   T   T   T
  0.1451735602411832  0.0017926305692077  0.5000169294558301   T   T   T
  0.1447265668246492  0.1444715921551796  0.4999456945193217   T   T   T
  0.1428597574262933  0.2859170812556448  0.4998255543150442   T   T   T
  0.1428188523332239  0.4282878701713815  0.4998882733545668   T   T   T
  0.1447131753946271  0.5715703305316079  0.5000018706489667   T   T   T
  0.1451409017160123  0.7146985395143058  0.5000497170399933   T   T   T
  0.1450733442660412  0.8582094294307536  0.5000235879612703   T   T   T
  0.2880454209857906  0.0018270100716312  0.4999652632521489   T   T   T
  0.2883516064322199  0.1465072643323171  0.4999548796784054   T   T   T
  0.2876398285532841  0.2926130516372765  0.4999327491518595   T   T   T
  0.2853797459990729  0.4283549079588269  0.4999137524258895   T   T   T
  0.2876251462758045  0.5663549104645003  0.4999784007307500   T   T   T
  0.2883324376659684  0.7132322470067370  0.5000280297285223   T   T   T
  0.2880429976946224  0.8576194280090912  0.5000062152526799   T   T   T
  0.4305724795675183  0.0009802327306939  0.4999744995311931   T   T   T
  0.4312348798054672  0.1456003307596941  0.4999208362807545   T   T   T
  0.4305035056749468  0.2871749677349669  0.4999913181151445   T   T   T
  0.4304425128667567  0.7146744619164465  0.5001084525198769   T   T   T
  0.4312497794267465  0.8570479483875445  0.5000562333821799   T   T   T
  0.5728948094693314  0.0005572053960383  0.5000244413869342   T   T   T
  0.5728931105673616  0.1437126881289890  0.4999512915941125   T   T   T
  0.5765906620480834  0.2902128483029663  0.4999516702187526   T   T   T
  0.5765912522299639  0.8577218808759740  0.5001342118379805   T   T   T
  0.7157921782043618  0.0009584485685009  0.5001047931434107   T   T   T
  0.7156400250506899  0.1434857109402327  0.4999953794607280   T   T   T
  0.7158269735821869  0.2861874514462498  0.4999491198300362   T   T   T
  0.7118282509780807  0.4256812787732156  0.5000079337517290   T   T   T
  0.7161026977780431  0.5724211936407988  0.5001221645340511   T   T   T
  0.7161289183592450  0.7150621246385523  0.5002595600490894   T   T   T
  0.7118568590646396  0.8575185471304722  0.5002056278453398   T   T   T
  0.8581650305273545  0.0002379080619439  0.5001892153772097   T   T   T
  0.8581632713566935  0.1432999162462415  0.5000283771770424   T   T   T
  0.8581787745370336  0.2861831972721927  0.4999647752281656   T   T   T
  0.8581623707656173  0.4292625674312496  0.5000117119004898   T   T   T
  0.8573701949128915  0.5715017875009908  0.5001122860557806   T   T   T
  0.8588068324011308  0.7150861144819037  0.5001372049391926   T   T   T
  0.8574110808599145  0.8572510050428338  0.5001854601351331   T   T   T
  0.0491828972971806  0.0960741891461630  0.5000050492175946   T   T   T
  0.0477292322185957  0.2380913560857446  0.4998640340821278   T   T   T
  0.0477263362444974  0.3809747718028782  0.4998948445188017   T   T   T
  0.0491628188112635  0.5244325939564962  0.5000129785962671   T   T   T
  0.0495228584615714  0.6674198127511376  0.5000745411302440   T   T   T
  0.0494264696029298  0.8103845244559831  0.5000714721967775   T   T   T
  0.0495705822850099  0.9534889924405359  0.5000761458341518   T   T   T
  0.1927993704443245  0.0972302761915993  0.4999799719746339   T   T   T
  0.1917101890588207  0.2399793338720856  0.4998798088472319   T   T   T
  0.1897316579128679  0.3805551936655037  0.4998576195590155   T   T   T
  0.1917053477566997  0.5230618417424129  0.4999585783710899   T   T   T
  0.1927640839556220  0.6668866642514913  0.5000252260703362   T   T   T
  0.1927648273767514  0.8103218131173944  0.5000271394596818   T   T   T
  0.1927835839725891  0.9538020891706297  0.4999981344822948   T   T   T
  0.3358623853636730  0.0982357348099067  0.4999358383787061   T   T   T
  0.3369118726100833  0.2430588792345267  0.4999694745172877   T   T   T
  0.3368687020154824  0.6652044703848539  0.5000283617301773   T   T   T
  0.3358442863508416  0.8090315242066105  0.5000351585792447   T   T   T
  0.3351867079419028  0.9533053634033283  0.4999794939741770   T   T   T
  0.4779047752542133  0.0964865797776844  0.4999300058762358   T   T   T
  0.4787325098956549  0.2415547102161520  0.4999525971581226   T   T   T
  0.4787115492127371  0.8085382799091229  0.5001067759408301   T   T   T
  0.4779124009907249  0.9528344714456705  0.5000165324506245   T   T   T
  0.6202071641906813  0.0957868669405013  0.4999930580475860   T   T   T
  0.6210567961541791  0.2392874474146122  0.4999331158699051   T   T   T
  0.6210541087961682  0.9531175113081177  0.5000761444354027   T   T   T
  0.7632958759333309  0.0961805847517166  0.5000453777974602   T   T   T
  0.7633345213554495  0.2384532190697840  0.4999688847683529   T   T   T
  0.7626747351270807  0.3810278306997397  0.4999829523685939   T   T   T
  0.7608277743478669  0.5239751857435784  0.5000656099649440   T   T   T
  0.7629498226121473  0.6671535348107761  0.5001823207151670   T   T   T
  0.7608717933077658  0.8082401425652901  0.5002408352598480   T   T   T
  0.7626957322636400  0.9530079910191713  0.5001855876689236   T   T   T
  0.9056109567394212  0.0952719524413174  0.5000791317489713   T   T   T
  0.9054868387243535  0.2383763670730027  0.4999513721412048   T   T   T
  0.9056151304263453  0.3816600351932342  0.4999893408051054   T   T   T
  0.9058148869423251  0.5246180115015444  0.5000740987170224   T   T   T
  0.9058614437432163  0.6670252722572055  0.5001365653666795   T   T   T
  0.9059023740694374  0.8102285301811190  0.5001412261945413   T   T   T
  0.9058532161356353  0.9525824073743997  0.5001830474106435   T   T   T
  0.4687639414864465  0.3598599684149386  0.5000431773624036   T   T   T
  0.6432027837765459  0.6772171122261134  0.5002726923136842   T   T   T
  0.6431708407461914  0.5373633185095891  0.5001181777465652   T   T   T
  0.4686710623131723  0.6802106817129432  0.5001584424897312   T   T   T
  0.4638123324058629  0.5599749086495661  0.5000029549050743   T   T   T
  0.4630299418953435  0.4743897156060425  0.4999941869803490   T   T   T
  0.3316576678265885  0.3829319849337812  0.4999410724081717   T   T   T
  0.3316725435080100  0.5200749428581224  0.4999614270147203   T   T   T
  0.6218362034153677  0.3805441056256050  0.4999914013301930   T   T   T
  0.6218504055171563  0.8126466927139572  0.5001854624685960   T   T   T
  0.5071202571559462  0.5387461369114204  0.5000000455000091   T   T   F
 
  0.00000000E+00  0.00000000E+00  0.00000000E+00
  0.00000000E+00  0.00000000E+00  0.00000000E+00
  0.00000000E+00  0.00000000E+00  0.00000000E+00
  0.00000000E+00  0.00000000E+00  0.00000000E+00
  0.00000000E+00  0.00000000E+00  0.00000000E+00
  0.00000000E+00  0.00000000E+00  0.00000000E+00
  0.00000000E+00  0.00000000E+00  0.00000000E+00
  0.00000000E+00  0.00000000E+00  0.00000000E+00
  0.00000000E+00  0.00000000E+00  0.00000000E+00
  0.00000000E+00  0.00000000E+00  0.00000000E+00
  0.00000000E+00  0.00000000E+00  0.00000000E+00
  0.00000000E+00  0.00000000E+00  0.00000000E+00
  0.00000000E+00  0.00000000E+00  0.00000000E+00
  0.00000000E+00  0.00000000E+00  0.00000000E+00
  0.00000000E+00  0.00000000E+00  0.00000000E+00
  0.00000000E+00  0.00000000E+00  0.00000000E+00
  0.00000000E+00  0.00000000E+00  0.00000000E+00
  0.00000000E+00  0.00000000E+00  0.00000000E+00
  0.00000000E+00  0.00000000E+00  0.00000000E+00
  0.00000000E+00  0.00000000E+00  0.00000000E+00
  0.00000000E+00  0.00000000E+00  0.00000000E+00
  0.00000000E+00  0.00000000E+00  0.00000000E+00
  0.00000000E+00  0.00000000E+00  0.00000000E+00
  0.00000000E+00  0.00000000E+00  0.00000000E+00
  0.00000000E+00  0.00000000E+00  0.00000000E+00
  0.00000000E+00  0.00000000E+00  0.00000000E+00
  0.00000000E+00  0.00000000E+00  0.00000000E+00
  0.00000000E+00  0.00000000E+00  0.00000000E+00
  0.00000000E+00  0.00000000E+00  0.00000000E+00
  0.00000000E+00  0.00000000E+00  0.00000000E+00
  0.00000000E+00  0.00000000E+00  0.00000000E+00
  0.00000000E+00  0.00000000E+00  0.00000000E+00
  0.00000000E+00  0.00000000E+00  0.00000000E+00
  0.00000000E+00  0.00000000E+00  0.00000000E+00
  0.00000000E+00  0.00000000E+00  0.00000000E+00
  0.00000000E+00  0.00000000E+00  0.00000000E+00
  0.00000000E+00  0.00000000E+00  0.00000000E+00
  0.00000000E+00  0.00000000E+00  0.00000000E+00
  0.00000000E+00  0.00000000E+00  0.00000000E+00
  0.00000000E+00  0.00000000E+00  0.00000000E+00
  0.00000000E+00  0.00000000E+00  0.00000000E+00
  0.00000000E+00  0.00000000E+00  0.00000000E+00
  0.00000000E+00  0.00000000E+00  0.00000000E+00
  0.00000000E+00  0.00000000E+00  0.00000000E+00
  0.00000000E+00  0.00000000E+00  0.00000000E+00
  0.00000000E+00  0.00000000E+00  0.00000000E+00
  0.00000000E+00  0.00000000E+00  0.00000000E+00
  0.00000000E+00  0.00000000E+00  0.00000000E+00
  0.00000000E+00  0.00000000E+00  0.00000000E+00
  0.00000000E+00  0.00000000E+00  0.00000000E+00
  0.00000000E+00  0.00000000E+00  0.00000000E+00
  0.00000000E+00  0.00000000E+00  0.00000000E+00
  0.00000000E+00  0.00000000E+00  0.00000000E+00
  0.00000000E+00  0.00000000E+00  0.00000000E+00
  0.00000000E+00  0.00000000E+00  0.00000000E+00
  0.00000000E+00  0.00000000E+00  0.00000000E+00
  0.00000000E+00  0.00000000E+00  0.00000000E+00
  0.00000000E+00  0.00000000E+00  0.00000000E+00
  0.00000000E+00  0.00000000E+00  0.00000000E+00
  0.00000000E+00  0.00000000E+00  0.00000000E+00
  0.00000000E+00  0.00000000E+00  0.00000000E+00
  0.00000000E+00  0.00000000E+00  0.00000000E+00
  0.00000000E+00  0.00000000E+00  0.00000000E+00
  0.00000000E+00  0.00000000E+00  0.00000000E+00
  0.00000000E+00  0.00000000E+00  0.00000000E+00
  0.00000000E+00  0.00000000E+00  0.00000000E+00
  0.00000000E+00  0.00000000E+00  0.00000000E+00
  0.00000000E+00  0.00000000E+00  0.00000000E+00
  0.00000000E+00  0.00000000E+00  0.00000000E+00
  0.00000000E+00  0.00000000E+00  0.00000000E+00
  0.00000000E+00  0.00000000E+00  0.00000000E+00
  0.00000000E+00  0.00000000E+00  0.00000000E+00
  0.00000000E+00  0.00000000E+00  0.00000000E+00
  0.00000000E+00  0.00000000E+00  0.00000000E+00
  0.00000000E+00  0.00000000E+00  0.00000000E+00
  0.00000000E+00  0.00000000E+00  0.00000000E+00
  0.00000000E+00  0.00000000E+00  0.00000000E+00
  0.00000000E+00  0.00000000E+00  0.00000000E+00
  0.00000000E+00  0.00000000E+00  0.00000000E+00
  0.00000000E+00  0.00000000E+00  0.00000000E+00
  0.00000000E+00  0.00000000E+00  0.00000000E+00
  0.00000000E+00  0.00000000E+00  0.00000000E+00
  0.00000000E+00  0.00000000E+00  0.00000000E+00
  0.00000000E+00  0.00000000E+00  0.00000000E+00
  0.00000000E+00  0.00000000E+00  0.00000000E+00
  0.00000000E+00  0.00000000E+00  0.00000000E+00
  0.00000000E+00  0.00000000E+00  0.00000000E+00
  0.00000000E+00  0.00000000E+00  0.00000000E+00
  0.00000000E+00  0.00000000E+00  0.00000000E+00
  0.00000000E+00  0.00000000E+00  0.00000000E+00
  0.00000000E+00  0.00000000E+00  0.00000000E+00
  0.00000000E+00  0.00000000E+00  0.00000000E+00
  0.00000000E+00  0.00000000E+00  0.00000000E+00
  0.00000000E+00  0.00000000E+00  0.00000000E+00
  0.00000000E+00  0.00000000E+00  0.00000000E+00
