C4                                      
    1.000000000000000     
    17.2710380553999983    0.0000000000000000    0.0000000000000000
    -8.6355190276999991   14.9571577057000002    0.0000000000000000
     0.0000000000000000    0.0000000000000000   15.0000000000000000
   C    H    F 
    88     6     2
Direct
 -0.0000634930636634 -0.0001070846872396  0.2500010107341771
 -0.0003985838655141  0.1425416992713571  0.2500009748010101
 -0.0006009632578032  0.2853059063797866  0.2499972012171864
 -0.0005196245428934  0.4283939012056991  0.2499974700938680
  0.0000561806736957  0.5714630635338431  0.2500017750693691
  0.0011145457084232  0.7147645810364917  0.2499977241087125
  0.0008682716321940  0.8577659210370855  0.2499997860434194
  0.1432990491597557  0.0005305048327941  0.2500033822695978
  0.1430933844046381  0.1434159355017939  0.2500011308988498
  0.1419150149891659  0.2852256035027227  0.2499970735888789
  0.1415106718963295  0.4283604455331858  0.2499975893325893
  0.1424956219442235  0.5713726896855279  0.2499994557680200
  0.1430874697991341  0.7144598235706556  0.2499981493713669
  0.1432322637831945  0.8575262697618619  0.2499989815701631
  0.2856581044783547 -0.0000639695205024  0.2500012335631911
  0.2858792032879835  0.1429018990657526  0.2500001329121167
  0.2868844104276761  0.2874308194484062  0.2500033433619074
  0.2827926761789079  0.4286942199425330  0.2500021253604609
  0.2852359900321427  0.5706975807478940  0.2500007581141129
  0.2853508381739237  0.7147830004421704  0.2500002868231634
  0.2854701428768654  0.8574620045128560  0.2499984806533210
  0.4286058892184680 -0.0000936820230220  0.2499972784175790
  0.4285784003724482  0.1420034056381019  0.2499983715019933
  0.4278164733093091  0.2816900465175272  0.2499979583028717
  0.4265505082420442  0.7164120533011866  0.2499999177085453
  0.4281384554284637  0.8574964254998269  0.2499987895293257
  0.5713910985618124  0.0004965093372702  0.2499959867313162
  0.5715459162466106  0.1425399056023044  0.2499972499376384
  0.5724620520375541  0.2854970770235846  0.2499985385089855
  0.5718329024601481  0.8585828918976790  0.2499970273905220
  0.7142729260528443 -0.0000103419992861  0.2499993472266993
  0.7144943796305353  0.1427901635169045  0.2499968322643786
  0.7145009460936453  0.2853982786862334  0.2499999561707933
  0.7138624597646009  0.4273267238601819  0.2500034334308266
  0.7178307322994109  0.5728002003874851  0.2500054311187366
  0.7195799276045640  0.7152305309978461  0.2500107600091034
  0.7127375023025607  0.8569556241379632  0.2500023643710380
  0.8568792672483030 -0.0002606564377757  0.2500017784006711
  0.8569135069956284  0.1425646520311219  0.2500004493128173
  0.8569570936187056  0.2853528301985120  0.2500004505812388
  0.8571441511124991  0.4282810930752042  0.2500006641431483
  0.8578890010891197  0.5716667893651213  0.2500031059108986
  0.8596192474264953  0.7152073052455105  0.2499989201465761
  0.8570464482927658  0.8565543678036814  0.2499971765637080
  0.0476992346636793  0.0953930592011217  0.2500020930186249
  0.0466979445500589  0.2374502350986090  0.2499976075790367
  0.0464049595558711  0.3805034797434657  0.2499988989568310
  0.0474564940873427  0.5237461173664650  0.2500003140455526
  0.0480215367562060  0.6668438678300972  0.2499971695935402
  0.0482058840470453  0.8099301440674139  0.2499987457776917
  0.0480359883961579  0.9527093831076529  0.2500023463751813
  0.1906538716859579  0.0954514311077867  0.2500017846634625
  0.1904739779693068  0.2387117572384241  0.2500003490163015
  0.1878783594141632  0.3800462830274722  0.2499983254228938
  0.1895804898052285  0.5235268946327848  0.2499982701548936
  0.1902366635151757  0.6668954029423897  0.2500015486012848
  0.1905761561565701  0.8098304102543969  0.2499982627172113
  0.1907460217919368  0.9526207126606837  0.2500002730546094
  0.3334183551999833  0.0952695010825998  0.2499995730707705
  0.3348020255338294  0.2383484662978930  0.2499990835574100
  0.3279528642680624  0.3801607794360053  0.2500033980287689
  0.3296461663966742  0.5224984217863157  0.2499995587607600
  0.3336452373058901  0.6679340890521352  0.2499987127469172
  0.3330836543711237  0.8098361867208702  0.2499991016987246
  0.3331614419456120  0.9523997256149010  0.2499981246703543
  0.4763515006339944  0.0946936330435101  0.2499981315956062
  0.4758495080179399  0.2367059279113005  0.2499976355658906
  0.4752180804054720  0.8096907249986212  0.2499977230088850
  0.4761852264075180  0.9526729373476356  0.2499978379759650
  0.6190847607965095  0.0952866268866523  0.2499953126177651
  0.6194995834968257  0.2376680693478724  0.2499988225648764
  0.6209997653213796  0.3787904510464409  0.2500010526359454
  0.6197868738835971  0.8136303117990429  0.2499986047575287
  0.6191434678272413  0.9532457714217510  0.2499972193839641
  0.7620000450316787  0.0952860575634048  0.2499988713085041
  0.7620611521592022  0.2377506732583805  0.2499985206607740
  0.7620964969143027  0.3804565356187446  0.2500002994998551
  0.7621932033771330  0.5244791677254349  0.2500055037373338
  0.7646719550247388  0.6666268898959847  0.2500027763098500
  0.7606800691144010  0.8079690977839558  0.2500024312608587
  0.7616992077075420  0.9523170547333188  0.2500030809931306
  0.9043636280578745  0.0946441100767236  0.2500012102309369
  0.9043602160054433  0.2376940976398131  0.2499998630874377
  0.9043693563532207  0.3807679198467238  0.2500004254863996
  0.9050156385194608  0.5238359777829278  0.2500008275759075
  0.9059820963309866  0.6668844318857475  0.2500000553577131
  0.9056443921734172  0.8100334026446919  0.2499980592224653
  0.9044836937077265  0.9518231599809478  0.2499985914286487
  0.4646628712786900  0.3535689251160037  0.2499973853501584
  0.4021084881038453  0.5559913455033832  0.2499998226328219
  0.6453508322555159  0.5392952966642957  0.2500037458884588
  0.5848236063915915  0.4151045599877846  0.2500012864371175
  0.5829137456233134  0.7417591247358312  0.2499975867356627
  0.4626389834068339  0.6800070718734316  0.2499988623680195
  0.4192923993987702  0.4333409851716036  0.2499927589003738
  0.6282279404280525  0.6622135899033708  0.2500223005754317
 
  0.00000000E+00  0.00000000E+00  0.00000000E+00
  0.00000000E+00  0.00000000E+00  0.00000000E+00
  0.00000000E+00  0.00000000E+00  0.00000000E+00
  0.00000000E+00  0.00000000E+00  0.00000000E+00
  0.00000000E+00  0.00000000E+00  0.00000000E+00
  0.00000000E+00  0.00000000E+00  0.00000000E+00
  0.00000000E+00  0.00000000E+00  0.00000000E+00
  0.00000000E+00  0.00000000E+00  0.00000000E+00
  0.00000000E+00  0.00000000E+00  0.00000000E+00
  0.00000000E+00  0.00000000E+00  0.00000000E+00
  0.00000000E+00  0.00000000E+00  0.00000000E+00
  0.00000000E+00  0.00000000E+00  0.00000000E+00
  0.00000000E+00  0.00000000E+00  0.00000000E+00
  0.00000000E+00  0.00000000E+00  0.00000000E+00
  0.00000000E+00  0.00000000E+00  0.00000000E+00
  0.00000000E+00  0.00000000E+00  0.00000000E+00
  0.00000000E+00  0.00000000E+00  0.00000000E+00
  0.00000000E+00  0.00000000E+00  0.00000000E+00
  0.00000000E+00  0.00000000E+00  0.00000000E+00
  0.00000000E+00  0.00000000E+00  0.00000000E+00
  0.00000000E+00  0.00000000E+00  0.00000000E+00
  0.00000000E+00  0.00000000E+00  0.00000000E+00
  0.00000000E+00  0.00000000E+00  0.00000000E+00
  0.00000000E+00  0.00000000E+00  0.00000000E+00
  0.00000000E+00  0.00000000E+00  0.00000000E+00
  0.00000000E+00  0.00000000E+00  0.00000000E+00
  0.00000000E+00  0.00000000E+00  0.00000000E+00
  0.00000000E+00  0.00000000E+00  0.00000000E+00
  0.00000000E+00  0.00000000E+00  0.00000000E+00
  0.00000000E+00  0.00000000E+00  0.00000000E+00
  0.00000000E+00  0.00000000E+00  0.00000000E+00
  0.00000000E+00  0.00000000E+00  0.00000000E+00
  0.00000000E+00  0.00000000E+00  0.00000000E+00
  0.00000000E+00  0.00000000E+00  0.00000000E+00
  0.00000000E+00  0.00000000E+00  0.00000000E+00
  0.00000000E+00  0.00000000E+00  0.00000000E+00
  0.00000000E+00  0.00000000E+00  0.00000000E+00
  0.00000000E+00  0.00000000E+00  0.00000000E+00
  0.00000000E+00  0.00000000E+00  0.00000000E+00
  0.00000000E+00  0.00000000E+00  0.00000000E+00
  0.00000000E+00  0.00000000E+00  0.00000000E+00
  0.00000000E+00  0.00000000E+00  0.00000000E+00
  0.00000000E+00  0.00000000E+00  0.00000000E+00
  0.00000000E+00  0.00000000E+00  0.00000000E+00
  0.00000000E+00  0.00000000E+00  0.00000000E+00
  0.00000000E+00  0.00000000E+00  0.00000000E+00
  0.00000000E+00  0.00000000E+00  0.00000000E+00
  0.00000000E+00  0.00000000E+00  0.00000000E+00
  0.00000000E+00  0.00000000E+00  0.00000000E+00
  0.00000000E+00  0.00000000E+00  0.00000000E+00
  0.00000000E+00  0.00000000E+00  0.00000000E+00
  0.00000000E+00  0.00000000E+00  0.00000000E+00
  0.00000000E+00  0.00000000E+00  0.00000000E+00
  0.00000000E+00  0.00000000E+00  0.00000000E+00
  0.00000000E+00  0.00000000E+00  0.00000000E+00
  0.00000000E+00  0.00000000E+00  0.00000000E+00
  0.00000000E+00  0.00000000E+00  0.00000000E+00
  0.00000000E+00  0.00000000E+00  0.00000000E+00
  0.00000000E+00  0.00000000E+00  0.00000000E+00
  0.00000000E+00  0.00000000E+00  0.00000000E+00
  0.00000000E+00  0.00000000E+00  0.00000000E+00
  0.00000000E+00  0.00000000E+00  0.00000000E+00
  0.00000000E+00  0.00000000E+00  0.00000000E+00
  0.00000000E+00  0.00000000E+00  0.00000000E+00
  0.00000000E+00  0.00000000E+00  0.00000000E+00
  0.00000000E+00  0.00000000E+00  0.00000000E+00
  0.00000000E+00  0.00000000E+00  0.00000000E+00
  0.00000000E+00  0.00000000E+00  0.00000000E+00
  0.00000000E+00  0.00000000E+00  0.00000000E+00
  0.00000000E+00  0.00000000E+00  0.00000000E+00
  0.00000000E+00  0.00000000E+00  0.00000000E+00
  0.00000000E+00  0.00000000E+00  0.00000000E+00
  0.00000000E+00  0.00000000E+00  0.00000000E+00
  0.00000000E+00  0.00000000E+00  0.00000000E+00
  0.00000000E+00  0.00000000E+00  0.00000000E+00
  0.00000000E+00  0.00000000E+00  0.00000000E+00
  0.00000000E+00  0.00000000E+00  0.00000000E+00
  0.00000000E+00  0.00000000E+00  0.00000000E+00
  0.00000000E+00  0.00000000E+00  0.00000000E+00
  0.00000000E+00  0.00000000E+00  0.00000000E+00
  0.00000000E+00  0.00000000E+00  0.00000000E+00
  0.00000000E+00  0.00000000E+00  0.00000000E+00
  0.00000000E+00  0.00000000E+00  0.00000000E+00
  0.00000000E+00  0.00000000E+00  0.00000000E+00
  0.00000000E+00  0.00000000E+00  0.00000000E+00
  0.00000000E+00  0.00000000E+00  0.00000000E+00
  0.00000000E+00  0.00000000E+00  0.00000000E+00
  0.00000000E+00  0.00000000E+00  0.00000000E+00
  0.00000000E+00  0.00000000E+00  0.00000000E+00
  0.00000000E+00  0.00000000E+00  0.00000000E+00
  0.00000000E+00  0.00000000E+00  0.00000000E+00
  0.00000000E+00  0.00000000E+00  0.00000000E+00
  0.00000000E+00  0.00000000E+00  0.00000000E+00
  0.00000000E+00  0.00000000E+00  0.00000000E+00
  0.00000000E+00  0.00000000E+00  0.00000000E+00
  0.00000000E+00  0.00000000E+00  0.00000000E+00
